 
data_shelxl
 
_audit_creation_method            'SHELXL-2018/3'
_shelx_SHELXL_version_number      '2018/3'
_chemical_name_systematic         ?
_chemical_name_common             ?
_chemical_melting_point           ?
_chemical_formula_moiety          ?
_chemical_formula_sum
 'C38 H44 N4 O2' 
_chemical_formula_weight          588.80

loop_
 _atom_type_symbol
 _atom_type_description
 _atom_type_scat_dispersion_real
 _atom_type_scat_dispersion_imag
 _atom_type_scat_source
 'C'  'C'   0.0000   0.0000
 'International Tables Vol C Tables 4.2.6.8 and 6.1.1.4'
 'H'  'H'   0.0000   0.0000
 'International Tables Vol C Tables 4.2.6.8 and 6.1.1.4'
 'N'  'N'   0.0000   0.0000
 'International Tables Vol C Tables 4.2.6.8 and 6.1.1.4'
 'O'  'O'   0.0000   0.0000
 'International Tables Vol C Tables 4.2.6.8 and 6.1.1.4'
 
_space_group_crystal_system       monoclinic
_space_group_IT_number            4
_space_group_name_H-M_alt         'P 21'
_space_group_name_Hall            'P 2yb'
 
_shelx_space_group_comment
;
The symmetry employed for this shelxl refinement is uniquely defined
by the following loop, which should always be used as a source of
symmetry information in preference to the above space-group names.
They are only intended as comments.
;
 
loop_
 _space_group_symop_operation_xyz
 'x, y, z'
 '-x, y+1/2, -z'
 
_cell_length_a                    10.732
_cell_length_b                    7.283
_cell_length_c                    11.107
_cell_angle_alpha                 90
_cell_angle_beta                  108.06
_cell_angle_gamma                 90
_cell_volume                      825.4
_cell_formula_units_Z             1
_cell_measurement_temperature     293(2)
_cell_measurement_reflns_used     ?
_cell_measurement_theta_min       ?
_cell_measurement_theta_max       ?
 
_exptl_crystal_description        ?
_exptl_crystal_colour             ?
_exptl_crystal_density_meas       ?
_exptl_crystal_density_method     ?
_exptl_crystal_density_diffrn     1.185          
_exptl_crystal_F_000              131
_exptl_transmission_factor_min    ?
_exptl_transmission_factor_max    ?
_exptl_crystal_size_max           ?
_exptl_crystal_size_mid           ?
_exptl_crystal_size_min           ?
_exptl_absorpt_coefficient_mu     0.000
_shelx_estimated_absorpt_T_min    ?
_shelx_estimated_absorpt_T_max    ?
_exptl_absorpt_correction_type    ?
_exptl_absorpt_correction_T_min   ?
_exptl_absorpt_correction_T_max   ?
_exptl_absorpt_process_details    ?
_exptl_absorpt_special_details    ?
_diffrn_ambient_temperature       293(2)
_diffrn_radiation_wavelength      0.02508
_diffrn_radiation_type            ?
_diffrn_source                    ?
_diffrn_measurement_device_type   ?
_diffrn_measurement_method        ?
_diffrn_detector_area_resol_mean  ?
_diffrn_reflns_number             1946
_diffrn_reflns_av_unetI/netI      0.1616
_diffrn_reflns_av_R_equivalents   0.0999
_diffrn_reflns_limit_h_min        -10
_diffrn_reflns_limit_h_max        10
_diffrn_reflns_limit_k_min        -7
_diffrn_reflns_limit_k_max        7
_diffrn_reflns_limit_l_min        -11
_diffrn_reflns_limit_l_max        11
_diffrn_reflns_theta_min          0.068
_diffrn_reflns_theta_max          0.730
_diffrn_reflns_theta_full         0.730
_diffrn_measured_fraction_theta_max   0.701
_diffrn_measured_fraction_theta_full  0.701
_diffrn_reflns_Laue_measured_fraction_max    0.701
_diffrn_reflns_Laue_measured_fraction_full   0.701
_diffrn_reflns_point_group_measured_fraction_max   0.710
_diffrn_reflns_point_group_measured_fraction_full  0.710
_reflns_number_total              1285
_reflns_number_gt                 868
_reflns_threshold_expression      'I > 2\s(I)'
_reflns_Friedel_coverage          0.841
_reflns_Friedel_fraction_max      0.720
_reflns_Friedel_fraction_full     0.721
 
_reflns_special_details
;
 Reflections were merged by SHELXL according to the crystal
 class for the calculation of statistics and refinement.
 
 _reflns_Friedel_fraction is defined as the number of unique
 Friedel pairs measured divided by the number that would be
 possible theoretically, ignoring centric projections and
 systematic absences.
;
 
_computing_data_collection        ?
_computing_cell_refinement        ?
_computing_data_reduction         ?
_computing_structure_solution     ?
_computing_structure_refinement 'SHELXL-2018/3 (Sheldrick, 2018)'
_computing_molecular_graphics     ?
_computing_publication_material   ?
_refine_special_details           ?
_refine_ls_structure_factor_coef  Fsqd
_refine_ls_matrix_type            full
_refine_ls_weighting_scheme       calc
_refine_ls_weighting_details
'w=1/[\s^2^(Fo^2^)+(0.2000P)^2^] where P=(Fo^2^+2Fc^2^)/3'
_atom_sites_solution_primary      ?
_atom_sites_solution_secondary    ?
_atom_sites_solution_hydrogens    .
_refine_ls_hydrogen_treatment     undef
_refine_ls_extinction_method      none
_refine_ls_extinction_coef        .
_refine_ls_abs_structure_details
;
 All f" are zero, so absolute structure could not be determined
;
_refine_ls_abs_structure_Flack    ?
_chemical_absolute_configuration  ?
_refine_ls_number_reflns          1285
_refine_ls_number_parameters      89
_refine_ls_number_restraints      1
_refine_ls_R_factor_all           0.2113
_refine_ls_R_factor_gt            0.1765
_refine_ls_wR_factor_ref          0.4429
_refine_ls_wR_factor_gt           0.4119
_refine_ls_goodness_of_fit_ref    1.423
_refine_ls_restrained_S_all       1.423
_refine_ls_shift/su_max           0.000
_refine_ls_shift/su_mean          0.000
 
loop_
 _atom_site_label
 _atom_site_type_symbol
 _atom_site_fract_x
 _atom_site_fract_y
 _atom_site_fract_z
 _atom_site_U_iso_or_equiv
 _atom_site_adp_type
 _atom_site_occupancy
 _atom_site_site_symmetry_order  
 _atom_site_calc_flag
 _atom_site_refinement_flags_posn
 _atom_site_refinement_flags_adp
 _atom_site_refinement_flags_occupancy
 _atom_site_disorder_assembly
 _atom_site_disorder_group
N001 N 0.890(3) 0.343(2) 0.3362(19) 0.039(5) Uiso 1 1 d . . . . .
C002 C 0.579(4) 0.817(3) 0.588(3) 0.058(7) Uiso 1 1 d . . . . .
C003 C 0.692(4) 0.540(3) 0.267(3) 0.071(8) Uiso 1 1 d . . . . .
C004 C 0.751(3) 0.616(3) 0.556(2) 0.037(6) Uiso 1 1 d . . . . .
C005 C 0.674(4) 0.788(4) 0.529(3) 0.070(8) Uiso 1 1 d . . . . .
C10 C 0.717(3) 0.487(3) 0.639(2) 0.040(6) Uiso 1 1 d . . . . .
O9 O 0.907(3) 0.740(3) 0.458(2) 0.056(6) Uiso 1 1 d . . . . .
C7 C 0.834(4) 0.500(3) 0.130(3) 0.061(8) Uiso 1 1 d . . . . .
N13 N 0.551(4) 0.705(3) 0.660(3) 0.072(8) Uiso 1 1 d . . . . .
C5 C 0.859(3) 0.581(3) 0.495(2) 0.045(6) Uiso 1 1 d . . . . .
C2 C 0.788(3) 0.445(2) 0.3780(19) 0.035(5) Uiso 1 1 d . . . . .
C3 C 0.829(4) 0.176(4) 0.263(3) 0.071(8) Uiso 1 1 d . . . . .
C8 C 0.711(4) 0.447(3) 0.144(2) 0.063(8) Uiso 1 1 d . . . . .
C6 C 0.696(4) 0.236(4) 0.162(3) 0.072(9) Uiso 1 1 d . . . . .
C4 C 0.938(4) 0.452(3) 0.257(2) 0.058(7) Uiso 1 1 d . . . . .
C14 C 0.571(4) 0.408(3) 0.772(3) 0.063(8) Uiso 1 1 d . . . . .
C11 C 0.618(4) 0.539(3) 0.687(2) 0.055(7) Uiso 1 1 d . . . . .
C16 C 0.643(4) 0.247(3) 0.799(3) 0.065(8) Uiso 1 1 d . . . . .
C15 C 0.745(4) 0.197(4) 0.752(3) 0.069(8) Uiso 1 1 d . . . . .
C12 C 0.783(4) 0.321(3) 0.671(2) 0.053(7) Uiso 1 1 d . . . . .
C00L C 0.867(8) 0.754(7) -0.009(5) 0.157(19) Uiso 1 1 d . . . . .
C1 C 0.841(5) 0.690(4) 0.087(3) 0.087(10) Uiso 1 1 d . . . . .
 
_geom_special_details
;
 All esds (except the esd in the dihedral angle between two l.s. planes)
 are estimated using the full covariance matrix.  The cell esds are taken
 into account individually in the estimation of esds in distances, angles
 and torsion angles; correlations between esds in cell parameters are only
 used when they are defined by crystal symmetry.  An approximate (isotropic)
 treatment of cell esds is used for estimating esds involving l.s. planes.
;
 
loop_
 _geom_bond_atom_site_label_1
 _geom_bond_atom_site_label_2
 _geom_bond_distance
 _geom_bond_site_symmetry_2
 _geom_bond_publ_flag
N001 C2 1.51(3) . ?
N001 C4 1.39(3) . ?
N001 C3 1.50(4) . ?
C002 N13 1.24(3) . ?
C002 C005 1.39(5) . ?
C003 C8 1.60(3) . ?
C003 C2 1.50(5) . ?
C004 C10 1.43(3) . ?
C004 C005 1.48(4) . ?
C004 C5 1.54(4) . ?
C10 C12 1.39(4) . ?
C10 C11 1.38(4) . ?
O9 C5 1.37(3) . ?
C7 C4 1.54(5) . ?
C7 C8 1.43(5) . ?
C7 C1 1.47(4) . ?
N13 C11 1.39(4) . ?
C5 C2 1.62(3) . ?
C3 C6 1.58(6) . ?
C8 C6 1.56(4) . ?
C14 C16 1.39(5) . ?
C14 C11 1.54(3) . ?
C16 C15 1.39(5) . ?
C15 C12 1.42(4) . ?
C00L C1 1.27(5) . ?
 
loop_
 _geom_angle_atom_site_label_1
 _geom_angle_atom_site_label_2
 _geom_angle_atom_site_label_3
 _geom_angle
 _geom_angle_site_symmetry_1
 _geom_angle_site_symmetry_3
 _geom_angle_publ_flag
C2 N001 C4 110.8(18) . . ?
C2 N001 C3 109(2) . . ?
C4 N001 C3 107.9(18) . . ?
N13 C002 C005 124(3) . . ?
C8 C003 C2 106(2) . . ?
C10 C004 C005 117(2) . . ?
C10 C004 C5 124(2) . . ?
C005 C004 C5 119.6(19) . . ?
C004 C005 C002 118(2) . . ?
C004 C10 C12 121(2) . . ?
C004 C10 C11 117(2) . . ?
C12 C10 C11 122(2) . . ?
C4 C7 C8 106(2) . . ?
C4 C7 C1 115(3) . . ?
C8 C7 C1 115(3) . . ?
C002 N13 C11 120(3) . . ?
O9 C5 C2 113.6(16) . . ?
O9 C5 C004 113.4(18) . . ?
C2 C5 C004 103(2) . . ?
N001 C2 C5 110(2) . . ?
N001 C2 C003 110.5(17) . . ?
C5 C2 C003 114.0(17) . . ?
C6 C3 N001 108(2) . . ?
C7 C8 C003 110(3) . . ?
C7 C8 C6 115(3) . . ?
C003 C8 C6 104.9(19) . . ?
C3 C6 C8 105(3) . . ?
N001 C4 C7 114(3) . . ?
C16 C14 C11 113(3) . . ?
N13 C11 C10 124(2) . . ?
N13 C11 C14 115(3) . . ?
C10 C11 C14 121(2) . . ?
C14 C16 C15 126(3) . . ?
C16 C15 C12 119(3) . . ?
C15 C12 C10 119(3) . . ?
C00L C1 C7 131(4) . . ?
 
loop_
 _geom_torsion_atom_site_label_1
 _geom_torsion_atom_site_label_2
 _geom_torsion_atom_site_label_3
 _geom_torsion_atom_site_label_4
 _geom_torsion
 _geom_torsion_site_symmetry_1
 _geom_torsion_site_symmetry_2
 _geom_torsion_site_symmetry_3
 _geom_torsion_site_symmetry_4
 _geom_torsion_publ_flag
C10 C004 C005 C002 3(4) . . . . ?
C5 C004 C005 C002 -178(3) . . . . ?
N13 C002 C005 C004 -3(5) . . . . ?
C005 C004 C10 C12 180(3) . . . . ?
C5 C004 C10 C12 1(4) . . . . ?
C005 C004 C10 C11 -2(4) . . . . ?
C5 C004 C10 C11 179(3) . . . . ?
C005 C002 N13 C11 2(5) . . . . ?
C10 C004 C5 O9 -158(2) . . . . ?
C005 C004 C5 O9 23(4) . . . . ?
C10 C004 C5 C2 79(3) . . . . ?
C005 C004 C5 C2 -100(3) . . . . ?
C4 N001 C2 C5 -81(2) . . . . ?
C3 N001 C2 C5 160.3(17) . . . . ?
C4 N001 C2 C003 46(3) . . . . ?
C3 N001 C2 C003 -73(3) . . . . ?
O9 C5 C2 N001 78(3) . . . . ?
C004 C5 C2 N001 -159.5(16) . . . . ?
O9 C5 C2 C003 -47(3) . . . . ?
C004 C5 C2 C003 76(3) . . . . ?
C8 C003 C2 N001 17(3) . . . . ?
C8 C003 C2 C5 141(2) . . . . ?
C2 N001 C3 C6 48(2) . . . . ?
C4 N001 C3 C6 -72(3) . . . . ?
C4 C7 C8 C003 54(3) . . . . ?
C1 C7 C8 C003 -74(4) . . . . ?
C4 C7 C8 C6 -64(3) . . . . ?
C1 C7 C8 C6 168(2) . . . . ?
C2 C003 C8 C7 -70(3) . . . . ?
C2 C003 C8 C6 53(4) . . . . ?
N001 C3 C6 C8 22(3) . . . . ?
C7 C8 C6 C3 45(3) . . . . ?
C003 C8 C6 C3 -75(3) . . . . ?
C2 N001 C4 C7 -65(2) . . . . ?
C3 N001 C4 C7 54(3) . . . . ?
C8 C7 C4 N001 12(3) . . . . ?
C1 C7 C4 N001 140(2) . . . . ?
C002 N13 C11 C10 -1(5) . . . . ?
C002 N13 C11 C14 -177(3) . . . . ?
C004 C10 C11 N13 1(4) . . . . ?
C12 C10 C11 N13 179(3) . . . . ?
C004 C10 C11 C14 177(2) . . . . ?
C12 C10 C11 C14 -5(4) . . . . ?
C16 C14 C11 N13 -178(3) . . . . ?
C16 C14 C11 C10 5(4) . . . . ?
C11 C14 C16 C15 -3(5) . . . . ?
C14 C16 C15 C12 2(6) . . . . ?
C16 C15 C12 C10 -1(5) . . . . ?
C004 C10 C12 C15 -180(3) . . . . ?
C11 C10 C12 C15 3(4) . . . . ?
C4 C7 C1 C00L 115(7) . . . . ?
C8 C7 C1 C00L -122(7) . . . . ?
 
_refine_diff_density_max    0.176
_refine_diff_density_min   -0.181
_refine_diff_density_rms    0.052

_shelx_res_file
;

TITL XKN in P2(1)
    shelxl.res
    created by SHELXL-2018/3 at 10:52:42 on 14-Feb-2025
CELL 0.02508 10.7320 7.2830 11.1070 90.0000 108.0600 90.0000
ZERR 1 0 0 0 0 0 0
LATT -1
SYMM -X,0.5+Y,-Z
SFAC  C 0.136 0.373 0.548 3.281 1.227 13.046 0.597 41.02 0 0 0 0 0.75 12.011
SFAC  H 0.037 0.561 0.127 3.791 0.236 13.556 0.129 37.723 0 0 0 0 0.32 1.008
SFAC  N 0.137 0.329 0.534 2.673 1.086 10.316 0.455 32.763 0 0 0 0 0.71 14.007
SFAC  O 0.143 0.305 0.51 2.268 0.937 8.262 0.392 25.665 0 0 0 0 0.63 15.999
UNIT 38 44 4 2

L.S. 100
PLAN  50
CONF
list 3
MORE -1
fmap 2 53
acta

WGHT    0.200000
FVAR      39.71757
N001  3    0.890344    0.343064    0.336180    11.00000    0.03924
C002  1    0.579425    0.816874    0.588146    11.00000    0.05794
C003  1    0.692495    0.539946    0.267152    11.00000    0.07098
C004  1    0.750943    0.615535    0.556324    11.00000    0.03738
C005  1    0.673882    0.788144    0.528537    11.00000    0.06953
C10   1    0.716643    0.487296    0.638591    11.00000    0.03974
O9    4    0.906723    0.739838    0.457889    11.00000    0.05597
C7    1    0.834481    0.499748    0.130196    11.00000    0.06056
N13   3    0.551175    0.704666    0.659840    11.00000    0.07214
C5    1    0.859220    0.581306    0.494759    11.00000    0.04518
C2    1    0.788053    0.445242    0.377993    11.00000    0.03530
C3    1    0.829012    0.175933    0.263453    11.00000    0.07074
C8    1    0.710810    0.446596    0.143603    11.00000    0.06289
C6    1    0.695840    0.236180    0.162397    11.00000    0.07235
C4    1    0.937662    0.451955    0.256846    11.00000    0.05801
C14   1    0.570734    0.407745    0.772020    11.00000    0.06333
C11   1    0.618274    0.539161    0.687285    11.00000    0.05539
C16   1    0.643340    0.246851    0.799165    11.00000    0.06474
C15   1    0.744585    0.196808    0.752066    11.00000    0.06950
C12   1    0.782611    0.320667    0.670862    11.00000    0.05319
C00L  1    0.866696    0.753515   -0.008778    11.00000    0.15716
C1    1    0.840580    0.689737    0.086972    11.00000    0.08711
HKLF 4




REM  XKN in P2(1)
REM wR2 = 0.4429, GooF = S = 1.423, Restrained GooF = 1.423 for all data
REM R1 = 0.1765 for 868 Fo > 4sig(Fo) and 0.2113 for all 1285 data
REM 89 parameters refined using 1 restraints

END

WGHT      0.2000      0.0000

REM Highest difference peak  0.176,  deepest hole -0.181,  1-sigma level  0.052
Q1    1   0.7433  0.0821  0.9809  11.00000  0.05    0.18
Q2    1   0.8034  0.0556  0.7793  11.00000  0.05    0.16
Q3    1   0.7221  0.6848  0.2680  11.00000  0.05    0.15
Q4    1   0.7362  0.0542  0.9046  11.00000  0.05    0.14
Q5    1   0.6644  0.1058  0.8870  11.00000  0.05    0.14
Q6    1   0.7426  0.1404  0.4838  11.00000  0.05    0.12
Q7    1   0.7583 -0.0152  0.0763  11.00000  0.05    0.12
Q8    1   0.7240  0.9996  0.6066  11.00000  0.05    0.12
Q9    1   0.8735  0.9807 -0.0701  11.00000  0.05    0.12
Q10   1   0.8234  0.9488 -0.0204  11.00000  0.05    0.12
Q11   1   0.8591  0.8227  0.1847  11.00000  0.05    0.11
Q12   1   0.6652  0.9465 -0.0028  11.00000  0.05    0.11
Q13   1   0.8173  0.0547  0.5625  11.00000  0.05    0.11
Q14   1   0.8725  1.0227  0.0811  11.00000  0.05    0.11
Q15   1   0.6173  0.8920  0.6033  11.00000  0.05    0.11
Q16   1   0.4037  0.3685  0.8569  11.00000  0.05    0.11
Q17   1   0.5897 -0.0746  0.8767  11.00000  0.05    0.11
Q18   1   0.8604  0.0881  0.1955  11.00000  0.05    0.10
Q19   1   0.9015  0.8551 -0.1347  11.00000  0.05    0.10
Q20   1   0.5386  0.9522  0.7836  11.00000  0.05    0.10
Q21   1   0.7007  0.7938 -0.0352  11.00000  0.05    0.10
Q22   1   1.0131  0.3887  0.2264  11.00000  0.05    0.10
Q23   1   0.7484  0.0233  0.1918  11.00000  0.05    0.09
Q24   1   0.4598  0.4078  0.7992  11.00000  0.05    0.09
Q25   1   0.5089  0.7802  0.8351  11.00000  0.05    0.09
Q26   1   0.7450  0.0666  0.3244  11.00000  0.05    0.09
Q27   1   0.8251  0.7841  0.1127  11.00000  0.05    0.09
Q28   1   0.7016  0.8603  0.6826  11.00000  0.05    0.09
Q29   1   0.5353  0.2644  0.0032  11.00000  0.05    0.08
Q30   1   0.6166  0.0349  0.2446  11.00000  0.05    0.08
Q31   1   0.6281  0.9774  0.4976  11.00000  0.05    0.08
Q32   1   1.0648  0.7248 -0.0180  11.00000  0.05    0.08
Q33   1   0.7711  0.9667  0.4383  11.00000  0.05    0.08
Q34   1   0.4854  0.3385 -0.0252  11.00000  0.05    0.08
Q35   1   0.7986  0.1827  0.2420  11.00000  0.05    0.08
Q36   1   0.6521  0.2025  0.3259  11.00000  0.05    0.08
Q37   1   0.9994  0.6922  0.3429  11.00000  0.05    0.07
Q38   1   0.9881  0.8011  0.5396  11.00000  0.05    0.07
Q39   1   0.5371  0.7959  0.5784  11.00000  0.05    0.07
Q40   1   0.6853  0.9225  0.4640  11.00000  0.05    0.07
Q41   1   0.8942  0.8110  0.4621  11.00000  0.05    0.07
Q42   1   0.6559  0.7886  0.7494  11.00000  0.05    0.07
Q43   1   0.9130  0.7790  0.0277  11.00000  0.05    0.06
Q44   1   0.9240  0.4924  0.5560  11.00000  0.05    0.06
Q45   1   0.6026  0.2787  0.1240  11.00000  0.05    0.06
Q46   1   0.5410  0.1983  0.1038  11.00000  0.05    0.06
Q47   1   0.9218  0.2832  0.6452  11.00000  0.05    0.05
Q48   1   0.5655  0.4203  0.0523  11.00000  0.05    0.05
Q49   1   1.0404  0.4204  0.3186  11.00000  0.05    0.05
Q50   1   0.9545  0.6142 -0.0541  11.00000  0.05    0.05
;
_shelx_res_checksum   32284

_shelx_hkl_file
;
   0   0   1 292150.  37227.   1
   0   0  -1 251902.  32128.   1
   0   0   2 252441.  32290.   1
   0   0  -2 275425.  35204.   1
   0   0   3 182384.  23464.   1
   0   0  -3 186404.  23963.   1
   0   0   4  86890.  11424.   1
   0   0  -4  92366.  12096.   1
   0   0   5  24011. 3625.57   1
   0   0  -5  31238. 4472.61   1
   0   0   6  11424. 2150.25   1
   0   0  -6  15012. 2470.46   1
   0   0   7 2085.24 1325.33   1
   0   0  -7 5230.64 1386.56   1
   0   0   8 3841.38 1460.75   1
   0   0  -8 5932.01 1520.64   1
   0   0   9 6806.04 1876.99   1
   0   0  -9 8564.87 1895.60   1
   0   0  10 4923.11 1759.91   1
   0   0 -10 6754.78 1707.85   1
   0  -1   1  97464.  12498.   1
   0  -1  -1 111276.  14351.   1
   0   1   1 134367.  17286.   1
   0   1  -1 132317.  16930.   1
   0  -1  -2 295117.  37793.   1
   0   1   2 259158.  33234.   1
   0  -1  -3 168789.  21775.   1
   0   1   3 182816.  23580.   1
   0  -1  -4 4453.73 1256.81   1
   0   1   4 7078.49 1670.62   1
   0  -1   5  25398. 3603.99   1
   0  -1  -5  18484. 2870.24   1
   0   1   5  22239. 3380.09   1
   0  -1   6  12023. 2046.94   1
   0  -1  -6  17278. 2797.41   1
   0   1   6  14807. 2478.55   1
   0   1  -6  14605. 2319.93   1
   0  -1   7  26064. 3844.07   1
   0  -1  -7  40329. 5691.93   1
   0   1   7  33774. 4920.42   1
   0   1  -7  36067. 5033.71   1
   0  -1   8  21222. 3361.21   1
   0  -1  -8  15287. 2680.06   1
   0   1   8  22099. 3536.55   1
   0   1  -8  13310. 2302.67   1
   0  -1   9  11551. 2378.47   1
   0  -1  -9 9714.04 2077.96   1
   0   1   9  11071. 2322.36   1
   0   1  -9 7528.99 1879.42   1
   0  -1  10 -536.55 1574.32   1
   0  -1 -10  458.32 1114.11   1
   0   1  10 2227.41 1543.83   1
   0   1 -10 1059.08 1399.24   1
   0  -2   0  57971. 7734.01   1
   0   2   0  59752. 7984.89   1
   0  -2   2  62962. 8211.48   1
   0  -2  -2  65713. 8767.19   1
   0   2   2  45293. 6274.61   1
   0   2  -2  50850. 6698.13   1
   0  -2  -3  25487. 3765.84   1
   0   2   3  22258. 3509.57   1
   0  -2  -4 136444.  17842.   1
   0   2   4 136741.  17896.   1
   0  -2  -5  51875. 7148.63   1
   0   2   5  52064. 7221.47   1
   0  -2  -6 8270.83 1725.65   1
   0   2   6  11664. 2267.06   1
   0  -2  -7 1010.52 1219.04   1
   0   2   7  825.46 1164.28   1
   0  -2  -8  21238. 3498.78   1
   0   2   8  20097. 3428.65   1
   0  -2  -9 3288.37 1449.96   1
   0   2   9 3997.84 1804.69   1
   0  -2  10 -235.04 1093.61   1
   0  -2 -10 -196.36 1214.19   1
   0   2  10 1559.21 1460.75   1
   0  -3   1  55301. 7472.34   1
   0  -3  -1  48557. 6663.06   1
   0   3   1  52819. 7183.70   1
   0   3  -1  40194. 5586.72   1
   0  -3   2  35959. 5022.92   1
   0  -3  -2  54249. 7456.16   1
   0   3   2  45401. 6288.10   1
   0   3  -2  50364. 6784.46   1
   0  -3   3  37470. 5098.46   1
   0  -3  -3  51227. 7143.24   1
   0   3   3  42946. 6115.45   1
   0   3  -3  37739. 5138.92   1
   0  -3  -4 1489.34 1152.41   1
   0   3   4 1073.64 1346.37   1
   0  -3  -5 -501.48 1302.40   1
   0   3   5  808.47 1275.96   1
   0  -3  -6 6220.66 1850.82   1
   0   3   6 3177.77 1558.13   1
   0  -3  -7  906.12 1390.07   1
   0   3   7 1747.50 1674.94   1
   0  -3  -8 4618.29 1756.94   1
   0   3   8 5173.99 1948.74   1
   0  -3  -9 1916.91 1392.77   1
   0   3   9 1743.73 1821.69   1
   0  -4   0 121931.  16097.   1
   0   4   0 134367.  17707.   1
   0  -4   1  67898. 9258.15   1
   0  -4  -1  52414. 7332.07   1
   0   4   1  50715. 7083.89   1
   0   4  -1  45535. 6414.88   1
   0  -4   2  50337. 6957.10   1
   0  -4  -2  35150. 5152.41   1
   0   4   2  40545. 5821.41   1
   0   4  -2  53601. 7337.46   1
   0  -4   3  10062. 1939.57   1
   0  -4  -3 5052.60 1652.82   1
   0   4   3 4464.52 1549.50   1
   0   4  -3 7804.15 1592.39   1
   0  -4   4 5093.06 1287.29   1
   0  -4  -4 5996.76 1809.01   1
   0   4   4 4658.75 1661.45   1
   0   4  -4 3933.10 1201.51   1
   0  -4  -5  10801. 2376.31   1
   0   4   5 5654.16 1763.42   1
   0  -4  -6  17505. 3250.60   1
   0   4   6  15144. 2959.26   1
   0  -4  -7 3717.29 1851.90   1
   0   4   7 2608.31 1820.88   1
   0  -4  -8 7537.08 2260.59   1
   0   4   8 4610.19 2055.03   1
   0  -5   1 1179.39 1302.67   1
   0  -5  -1  909.90 1328.84   1
   0   5   1  366.33 1269.22   1
   0   5  -1 1711.36 1250.61   1
   0  -5   2 5025.62 1550.58   1
   0  -5  -2 8632.31 2051.25   1
   0  -5   3 4267.60 1577.55   1
   0  -5  -3 2859.45 1667.38   1
   0   5   3  980.85 1425.41   1
   0   5  -3 1202.59 1100.89   1
   0   5   4  20852. 3609.38   1
   0   5  -4  15258. 2550.85   1
   0  -5   5  19509. 3107.63   1
   0  -5  -5  25994. 4362.01   1
   0   5   5  21562. 3760.45   1
   0   5  -5  21619. 3299.16   1
   0  -5  -6 3792.82 1937.68   1
   0   5   6 4513.08 1804.69   1
   0  -5  -7 2641.49 1576.75   1
   0   5   7 2176.96 1616.13   1
   0  -6   0 2124.90 1660.64   1
   0   6   0 1283.25 1680.87   1
   0  -6   1  482.06 1636.36   1
   0  -6  -1 1905.85 1365.79   1
   0   6   1 4831.40 1786.35   1
   0   6  -1 2154.30 1264.63   1
   0  -6   2  10758. 2280.55   1
   0  -6  -2 4658.75 1765.85   1
   0   6   2  13855. 2770.43   1
   0   6  -2  13232. 2612.08   1
   0  -6   3  12042. 2550.85   1
   0  -6  -3  14135. 2945.78   1
   0   6   3  15055. 2875.64   1
   0   6  -3  20863. 3490.69   1
   0  -6   4 3018.61 1612.89   1
   0  -6  -4 6172.10 2220.93   1
   0   6   4 6919.33 2064.74   1
   0   6  -4 6700.83 1663.88   1
   0  -6   5 3919.61 1391.42   1
   0  -6  -5 1313.46 1778.80   1
   0   6   5 2827.08 1515.51   1
   0   6  -5  858.64 993.255   1
   0  -6   6 -1180.5 1058.54   1
   0  -6  -6   62.77 1265.44   1
   0   6   6  535.20 1243.32   1
   0   6  -6 -284.06 976.530   1
   0  -7   1 2621.52 1668.46   1
   0  -7  -1 1791.47 1491.50   1
   0   7   1 -448.61 1314.27   1
   0   7  -1 1286.21 1101.97   1
   0  -7   2 1861.61 1310.49   1
   0  -7  -2 -2281.1 1304.83   1
   0   7   2 -157.19 1347.18   1
   0   7  -2  -77.56 1267.06   1
   0  -7   3 -966.28 1160.51   1
   0  -7  -3   10.18 1418.40   1
   0   7   3 -255.62 1098.19   1
   0   7  -3 -160.13 1257.89   1
   1   0 -10 2383.06 1226.60   1
  -1   0  10  743.19 1295.93   1
   1   0  -9 4094.95 1310.22   1
  -1   0   9 5632.58 1532.23   1
   1   0  -8 6447.26 1470.73   1
  -1   0   8 3215.53 1187.75   1
   1   0  -7  30456. 4321.55   1
  -1   0   7  19900. 3032.10   1
   1   0  -6  23067. 3318.04   1
  -1   0   6  26156. 3787.43   1
   1   0  -5 9295.92 1807.39   1
  -1   0   5  10923. 1934.45   1
   1   0  -4 2615.05 971.135   1
  -1   0   4 4893.44 1190.72   1
   1   0  -3 3164.28 948.475   1
  -1   0   3 4181.27 1091.18   1
   1   0  -2 171028.  21953.   1
  -1   0   2 173482.  22263.   1
   1   0  -1  25198. 3366.60   1
  -1   0   1  38549. 5063.39   1
   1   0   5  77286.  10251.   1
  -1   0  -5  78554.  10364.   1
   1   0   6  24165. 3690.31   1
  -1   0  -6  24613. 3660.64   1
   1   0   7  20151. 3339.62   1
  -1   0  -7  16682. 2748.85   1
   1   0   9 4264.90 1853.52   1
  -1   0  -9 3919.61 1661.45   1
   1   0  10 5934.71 2060.42   1
  -1   0 -10 8106.28 1960.61   1
   1  -1 -10 1120.31 1168.87   1
  -1  -1  10 -518.48 1296.20   1
   1   1 -10  548.96 1268.95   1
  -1   1  10 -1776.6 1555.16   1
   1  -1  -9 2217.42 1397.62   1
  -1  -1   9  -60.26 1159.16   1
   1   1  -9 -430.54 1129.48   1
  -1   1   9 3158.89 1686.27   1
   1  -1  -8 2093.06 1375.50   1
  -1  -1   8 4076.07 1213.92   1
   1   1  -8 2810.90 1080.93   1
  -1   1   8 4308.06 1609.93   1
   1  -1  -7  23620. 3649.85   1
  -1  -1   7  20245. 3018.61   1
   1   1  -7  23725. 3450.23   1
  -1   1   7  18495. 3080.66   1
   1  -1  -6  59563. 8071.21   1
  -1  -1   6  50013. 6673.85   1
   1   1  -6  53278. 7113.56   1
  -1   1   6  47963. 6657.67   1
   1  -1  -5  88050.  11637.   1
  -1  -1   5  78473.  10208.   1
   1   1  -5  72484. 9471.26   1
  -1   1   5  84947.  11289.   1
   1  -1  -4  17551. 2762.34   1
  -1  -1   4  21384. 2918.80   1
   1   1  -4  18889. 2635.82   1
  -1   1   4  18058. 2908.01   1
   1  -1  -3 105503.  13766.   1
  -1  -1   3 136579.  17464.   1
   1   1  -3 128999.  16504.   1
  -1   1   3 134880.  17524.   1
   1  -1  -2 600755.  76747.   1
  -1  -1   2 592932.  75614.   1
   1   1  -2 564607.  71999.   1
  -1   1   2 590774.  75452.   1
   1  -1  -1  51173. 6908.54   1
  -1   1   1  99568.  13019.   1
   1  -1   0 455085.  58079.   1
  -1  -1   0 425950.  54330.   1
   1   1   0 455894.  58133.   1
  -1   1   0 728081.  92797.   1
  -1  -1  -1 477475.  60966.   1
   1   1   1 520097.  66388.   1
  -1  -1  -2 967898. 123415.   1
   1   1   2 999999. 127542.   1
  -1  -1  -3 359320.  46102.   1
   1   1   3 273536.  35204.   1
  -1  -1  -4 161991.  21028.   1
   1   1   4 166064.  21616.   1
  -1  -1  -5 7661.17 1867.01   1
   1   1   5  11837. 2307.79   1
  -1  -1  -6 7674.66 1807.12   1
   1   1   6 6409.49 1730.24   1
  -1  -1  -7  218.42 1539.25   1
   1   1   7  582.68 1425.14   1
  -1  -1  -8  11748. 2376.58   1
   1   1   8  17742. 3123.82   1
   1  -1   9 2149.71 1257.62   1
  -1  -1  -9 6131.64 1776.64   1
   1   1   9 3024.01 1762.61   1
   1  -1  10 2700.29 1278.39   1
  -1  -1 -10 1739.68 1199.62   1
   1   1  10 3595.90 1586.46   1
   1  -2 -10 4407.87 1630.70   1
  -1  -2  10 3005.12 1373.89   1
   1   2 -10 -899.65 1131.10   1
  -1   2  10  929.32 1775.56   1
   1  -2  -9 4861.07 1751.82   1
  -1  -2   9 6234.15 1712.16   1
   1   2  -9 7631.50 1644.45   1
  -1   2   9 8896.67 2383.06   1
   1  -2  -8  472.62 1490.69   1
  -1  -2   8 2420.01 1260.59   1
   1   2  -8 3118.42 1093.61   1
  -1   2   8 2945.78 1610.73   1
   1   2  -7 2195.84 926.085   1
  -1   2   7 -751.55 1250.61   1
   1  -2  -6  12085. 2304.02   1
  -1  -2   6  13485. 2024.01   1
  -1   2   6  11818. 2369.03   1
   1  -2  -5  825.73 1342.05   1
  -1   2   5  347.18 1324.79   1
   1  -2  -4  -93.61 1322.09   1
  -1   2   4 -3091.4 1490.15   1
   1  -2  -3  31400. 4564.33   1
  -1   2   3  31778. 4704.61   1
   1   2  -2  27381. 3625.57   1
  -1   2   2  34529. 5225.24   1
   1  -2  -1 105611.  13898.   1
  -1  -2   1 103480.  13326.   1
   1   2  -1  73860. 9584.56   1
  -1   2   1  77421.  10361.   1
   1  -2   0  22153. 3436.74   1
  -1  -2   0  24346. 3407.06   1
   1   2   0 8804.96 1659.02   1
  -1   2   0 7688.15 1976.26   1
   1  -2   1  19709. 3021.31   1
  -1  -2  -1  21988. 3191.26   1
   1   2   1  18624. 2859.45   1
  -1   2  -1  25109. 3674.13   1
  -1  -2  -2  57567. 7704.34   1
   1   2   2  56272. 7604.52   1
  -1  -2  -3 204181.  26369.   1
   1   2   3 211114.  27273.   1
  -1  -2  -4  45454. 6309.68   1
   1   2   4  43539. 6088.48   1
  -1  -2  -5  32209. 4693.82   1
   1   2   5  27731. 4173.18   1
  -1  -2  -6  12714. 2383.06   1
   1   2   6  10086. 2123.01   1
  -1  -2  -7 4076.07 1471.00   1
   1   2   7 4461.82 1574.59   1
  -1  -2  -8 3450.23 1495.01   1
   1   2   8 2978.15 1630.70   1
  -1  -2  -9 2182.90 1454.54   1
   1   2   9 2458.05 1590.50   1
   1  -3 -10  239.76 1471.00   1
  -1   3  10 2396.81 1671.16   1
   1  -3  -9 7599.13 2113.57   1
  -1   3   9  12714. 2837.87   1
   1  -3  -8  37658. 5702.72   1
  -1   3   8  40680. 6153.22   1
   1  -3  -7 3204.74 1484.49   1
  -1   3   7 2336.12 1497.71   1
   1  -3  -6 8214.18 2089.02   1
  -1   3   6 3293.77 1625.30   1
   1  -3  -5  20340. 3436.74   1
  -1   3   5  21430. 3520.36   1
   1  -3  -4  45023. 6436.47   1
  -1  -3   4  35285. 4688.42   1
  -1   3   4  35635. 5268.41   1
   1  -3  -3  37685. 5511.19   1
  -1  -3   3  39277. 5241.43   1
   1   3  -3  36283. 4888.04   1
  -1   3   3  44429. 6328.56   1
   1  -3  -2  58835. 8184.51   1
  -1  -3   2  45401. 6045.31   1
   1   3  -2  58025. 7671.96   1
  -1   3   2  48314. 6884.27   1
   1  -3  -1  64500. 8826.54   1
  -1  -3   1  85918.  11227.   1
   1   3  -1  76072. 9962.22   1
  -1   3   1  69193. 9409.22   1
   1  -3   0  99406.  13207.   1
  -1  -3   0 141867.  18368.   1
   1   3   0 185028.  23882.   1
  -1   3   0 176693.  23005.   1
   1  -3   1  32425. 4699.21   1
  -1  -3  -1  26439. 3892.63   1
   1   3   1  30024. 4299.97   1
  -1   3  -1  24564. 3714.59   1
   1  -3   2  55166. 7491.23   1
  -1  -3  -2  74373. 9932.55   1
   1   3   2  78365.  10469.   1
  -1   3  -2  66415. 8883.19   1
  -1  -3  -3  10442. 1941.19   1
   1   3   3  13396. 2443.21   1
  -1  -3  -4  15757. 2646.34   1
   1   3   4  18025. 2961.96   1
  -1  -3  -5 1884.27 1178.31   1
   1   3   5  -63.26 1040.73   1
  -1  -3  -6  914.75 1133.26   1
   1   3   6 -195.55 1255.73   1
  -1  -3  -7 8961.42 2067.71   1
   1   3   7  10370. 2286.21   1
  -1  -3  -8 8400.32 2056.11   1
   1   3   8 6352.84 2076.61   1
  -1  -3  -9 5705.42 1698.95   1
   1   3   9 6139.73 1899.11   1
   1  -4  -9  544.64 1394.93   1
  -1   4   9  319.67 1429.46   1
   1  -4  -8 -360.40 1707.58   1
  -1   4   8 -187.70 1510.65   1
   1  -4  -7  13110. 2829.78   1
  -1   4   7 7132.45 2080.93   1
   1  -4  -6 8038.84 2147.02   1
  -1   4   6 9738.32 2349.07   1
   1  -4  -5 1813.05 1464.26   1
  -1  -4   5 2217.69 973.023   1
  -1   4   5 2729.97 1478.01   1
   1  -4  -4  16814. 3053.68   1
  -1  -4   4  17203. 2604.26   1
   1   4  -4  17591. 2577.01   1
  -1   4   4  12520. 2560.83   1
   1  -4  -3  39682. 5845.69   1
  -1  -4   3  32965. 4623.68   1
   1   4  -3  45832. 6236.84   1
  -1   4   3  29862. 4604.80   1
   1  -4  -2 6512.00 1993.79   1
  -1  -4   2 3873.75 1229.56   1
   1   4  -2 4553.54 1438.90   1
  -1   4   2   96.12 1642.30   1
   1  -4  -1  17089. 3045.59   1
  -1  -4   1  17677. 2778.52   1
   1   4  -1  18295. 2824.38   1
  -1   4   1  15498. 2891.82   1
   1  -4   0 1703.80 1573.24   1
  -1  -4   0 2064.47 1185.05   1
   1   4   0 3976.26 1312.11   1
  -1   4   0 9498.24 2189.37   1
   1  -4   1  29835. 4612.89   1
  -1  -4  -1  25657. 3887.24   1
   1   4   1  14216. 2455.08   1
  -1   4  -1  15500. 2697.60   1
   1  -4   2  46534. 6514.70   1
  -1  -4  -2  34637. 5033.71   1
   1   4   2  56380. 7750.19   1
  -1   4  -2  41246. 5797.13   1
   1  -4   3  19204. 3061.77   1
  -1  -4  -3  16782. 2943.08   1
   1   4   3  15967. 2792.01   1
  -1   4  -3  21411. 3293.77   1
  -1  -4  -4 4612.89 1602.10   1
   1   4   4 3339.62 1440.79   1
  -1  -4  -5 3372.00 1584.03   1
   1   4   5 6444.56 1864.58   1
  -1  -4  -6  37389. 5565.14   1
   1   4   6  43404. 6398.70   1
  -1  -4  -7 6288.10 1903.15   1
   1   4   7 4923.11 1697.33   1
  -1  -4  -8 2070.41 1420.55   1
   1   4   8 3150.79 1679.52   1
   1  -5  -8  397.63 1329.65   1
  -1   5   8 1817.37 1430.00   1
   1  -5  -7 3962.77 1861.34   1
  -1   5   7  844.08 1801.99   1
   1  -5  -6 1502.83 1882.92   1
  -1  -5   6 2783.92 1279.47   1
   1   5  -6  558.40 1019.96   1
  -1   5   6 1705.69 1486.65   1
   1  -5  -5  31670. 5095.76   1
  -1  -5   5  24305. 3603.99   1
   1   5  -5  29404. 4132.72   1
  -1   5   5  35959. 5575.93   1
   1  -5  -4  21333. 3838.68   1
  -1  -5   4  16369. 2612.35   1
   1   5  -4  30483. 4343.13   1
  -1   5   4  21206. 3722.68   1
   1  -5  -3  36741. 5700.02   1
  -1  -5   3  38684. 5457.24   1
   1   5  -3  40167. 5662.25   1
  -1   5   3  38630. 5810.62   1
   1  -5  -2 1901.00 1799.03   1
  -1  -5   2 1540.33 1161.59   1
   1   5  -2  793.36 1301.59   1
  -1   5   2 1939.03 1770.16   1
   1  -5  -1 3614.78 1561.91   1
  -1  -5   1 6727.81 1684.65   1
   1   5  -1 4415.97 1320.47   1
  -1   5   1 4693.82 1640.68   1
   1  -5   0 -1116.3 1410.84   1
  -1  -5   0 -1611.8 1105.21   1
   1   5   0  391.69 1079.31   1
  -1   5   0 3417.85 1506.34   1
   1  -5   1 5737.79 1769.35   1
  -1  -5  -1 8688.96 1998.38   1
   1   5   2 6298.89 1697.60   1
  -1   5  -2 4699.21 1505.53   1
   1  -5   3 6371.72 1708.66   1
  -1  -5  -3 7178.30 1925.81   1
   1   5   3  10213. 2208.25   1
  -1   5  -3 6611.81 1600.75   1
   1  -5   4  34718. 5041.81   1
  -1  -5  -4  38468. 5861.88   1
   1   5   4  25935. 4197.46   1
  -1   5  -4  25986. 4041.00   1
  -1  -5  -5 7636.90 2231.45   1
   1   5   5 6568.65 2122.20   1
  -1  -5  -6 6833.01 2327.76   1
   1   5   6 4861.07 1961.42   1
  -1  -5  -7 3277.58 1870.24   1
   1   5   7 2988.94 1711.36   1
   1  -6  -6 -116.67 1571.08   1
  -1  -6   6 1142.97 1015.38   1
   1   6  -6  406.80 783.382   1
  -1   6   6  677.64 1427.03   1
   1  -6  -5 4132.72 1862.42   1
  -1  -6   5 2654.70 1403.29   1
   1   6  -5  493.39 906.932   1
  -1   6   5  594.55 1676.83   1
   1  -6  -4 1020.77 1726.46   1
  -1  -6   4 1240.89 1355.54   1
   1   6  -4  308.34 1207.44   1
  -1   6   4 1224.71 1596.17   1
   1  -6  -3 7364.44 2372.54   1
  -1  -6   3 9363.36 2147.29   1
   1   6  -3 4612.89 1430.54   1
  -1   6   3 8100.88 2200.70   1
   1  -6  -2  23601. 4205.55   1
  -1  -6   2  24340. 3876.45   1
   1   6  -2  21956. 3682.22   1
  -1   6   2  25749. 4448.34   1
   1  -6  -1 4893.44 2021.85   1
  -1  -6   1 4194.76 1408.15   1
   1   6  -1 4035.60 1458.86   1
  -1   6   1 2716.48 1594.01   1
   1  -6   0 2622.87 1471.81   1
  -1  -6   0 -665.50 1291.34   1
   1   6   0 1602.10 1133.53   1
  -1   6   0 1310.76 1415.43   1
   1  -6   1 3374.69 1633.66   1
  -1  -6  -1 1526.30 1360.94   1
   1   6   1  646.07 1193.42   1
  -1   6  -1 -2441.6 1489.61   1
   1  -6   2 1176.69 1628.81   1
  -1  -6  -2 -119.07 1419.21   1
   1   6   2 3345.02 1731.05   1
  -1   6  -2 2334.77 1673.59   1
   1  -6   3 4094.95 1687.62   1
  -1  -6  -3 2808.20 1872.94   1
   1   6   3  436.20 1599.40   1
  -1   6  -3 -528.46 1479.63   1
   1  -6   4 -274.62 1132.18   1
  -1  -6  -4 1155.92 1797.68   1
   1   6   4 2069.06 1664.42   1
  -1   6  -4  374.97 1205.02   1
   1  -6   5 1751.28 1215.81   1
  -1  -6  -5 -288.37 1530.35   1
   1   6   5 3282.97 1694.36   1
  -1   6  -5 5001.34 1466.14   1
   1  -7  -3 1211.22 1609.39   1
  -1  -7   3 -1225.5 1404.10   1
   1   7  -3   70.33 917.722   1
  -1   7   3 -2416.0 1645.26   1
   1  -7  -2 -4259.5 1569.19   1
  -1  -7   2  575.13 1260.86   1
   1   7  -2  588.62 1388.45   1
  -1   7   2  803.07 1824.92   1
   1  -7  -1  430.27 1847.31   1
  -1  -7   1 2463.45 1285.13   1
   1   7  -1 2263.28 1358.24   1
  -1   7   1 2250.87 1528.46   1
   1  -7   0 5049.90 1802.80   1
  -1  -7   0 4200.16 1599.14   1
   1   7   0 2980.84 1403.29   1
  -1   7   0 3102.24 1537.36   1
   1  -7   1 1529.81 1343.40   1
  -1  -7  -1 -115.86 1211.76   1
   1   7   1 1092.26 1336.12   1
  -1   7  -1 -1355.8 1159.97   1
   1  -7   2  490.69 1338.01   1
  -1  -7  -2 1095.22 1244.13   1
   1   7   2 -605.61 1251.68   1
  -1   7  -2 2683.03 1456.97   1
  -1   7  -3 -595.36 1216.89   1
   2   0 -11 3369.30 1270.84   1
  -2   0  11 4157.00 1502.83   1
   2   0 -10 1455.35 1269.76   1
  -2   0  10  227.92 1174.53   1
   2   0  -9 1410.84 1392.77   1
  -2   0   9 -852.44 1072.29   1
   2   0  -8 9430.80 1882.65   1
  -2   0   8 8278.92 1740.49   1
   2   0  -7 4356.62 1238.20   1
  -2   0   7 7148.63 1528.19   1
   2   0  -6  356.35 1080.39   1
  -2   0   6 2200.43 1032.37   1
   2   0  -5 2484.76 1003.24   1
  -2   0   5 1236.85 1119.50   1
   2   0  -4  29566. 4248.71   1
  -2   0   4  28595. 4162.39   1
   2   0  -2 177421.  22811.   1
  -2   0   2 172862.  22250.   1
   2   0   9 2360.67 1620.18   1
   2  -1 -11 2276.50 1377.12   1
  -2  -1  11  863.23 1110.87   1
   2   1 -11 2870.24 1168.06   1
  -2   1  11 2485.84 1398.16   1
   2  -1 -10 -946.32 1449.96   1
  -2  -1  10 1165.09 1094.15   1
   2   1 -10  600.48 1046.13   1
  -2   1  10  120.37 1523.60   1
   2  -1  -9  368.49 1300.78   1
  -2  -1   9 5602.91 1606.42   1
   2   1  -9 2765.04 1148.64   1
  -2   1   9 -480.17 1551.93   1
   2  -1  -8 2514.43 1332.34   1
  -2  -1   8  184.57 1089.56   1
   2   1  -8 2550.58 986.781   1
  -2   1   8 2520.63 1347.18   1
   2  -1  -7 2318.58 1187.21   1
  -2  -1   7 5964.39 1294.04   1
   2   1  -7 1526.84 892.095   1
  -2   1   7 1614.51 1175.61   1
   2  -1  -6 7906.65 1762.34   1
  -2  -1   6 8648.49 1532.23   1
   2   1  -6 4939.30 1132.99   1
  -2   1   6 7404.90 1694.90   1
   2  -1  -5  33046. 4774.75   1
  -2  -1   5  41273. 5511.19   1
   2   1  -5  41732. 5586.72   1
  -2   1   5  45023. 6293.49   1
   2  -1  -4  38171. 5486.91   1
  -2  -1   4  37254. 4990.55   1
   2   1  -4  35689. 4807.12   1
  -2   1   4  48719. 6903.15   1
   2  -1  -3 110116.  14478.   1
  -2  -1   3 118128.  15185.   1
   2   1  -3 108767.  14009.   1
  -2   1   3 138710.  18166.   1
   2  -1  -2 241840.  31184.   1
  -2   1   2 202050.  26199.   1
   2  -1  -1 191610.  24729.   1
  -2   1   1 220529.  28433.   1
  -2  -1  -4 107041.  14041.   1
   2   1   4 140059.  18260.   1
  -2  -1  -5 5540.86 1635.01   1
   2   1   5 5535.47 1742.11   1
  -2  -1  -6 4974.37 1577.28   1
   2   1   6 6522.79 1818.18   1
  -2  -1  -7  11683. 2318.31   1
   2   1   7  10351. 2308.87   1
  -2  -1  -8  10623. 2265.17   1
   2   1   8  11907. 2645.26   1
  -2  -1  -9 2905.31 1544.37   1
   2   1   9 2897.22 1994.87   1
   2  -2 -10 2719.18 1454.27   1
  -2  -2  10  961.15 1007.55   1
   2   2 -10 3032.10 1076.07   1
  -2   2  10 2241.43 1697.06   1
   2  -2  -9  746.16 1353.92   1
  -2  -2   9 2349.88 1016.18   1
   2   2  -9 1861.61 984.623   1
  -2   2   9 2121.66 1537.63   1
   2  -2  -8  13887. 2759.64   1
  -2  -2   8  15101. 2316.70   1
   2   2  -8  15587. 2364.98   1
  -2   2   8  13388. 2628.00   1
   2  -2  -7  13930. 2675.21   1
  -2  -2   7  12247. 1872.94   1
   2   2  -7  14276. 2135.15   1
  -2   2   7  15630. 2837.87   1
   2  -2  -6 128972.  17084.   1
  -2  -2   6 142676.  18317.   1
   2   2  -6 150229.  19274.   1
  -2   2   6 139709.  18457.   1
   2  -2  -5  36121. 5308.87   1
  -2  -2   5  35554. 4661.45   1
   2   2  -5  38711. 5049.90   1
  -2   2   5  31886. 4799.02   1
   2  -2  -4 208983.  27219.   1
  -2  -2   4 221635.  28325.   1
   2   2  -4 228621.  29188.   1
  -2   2   4 207931.  27138.   1
   2  -2  -3  35204. 5192.87   1
  -2   2   3  27542. 4415.97   1
   2  -2  -2 157270.  20580.   1
  -2   2   2  64257. 9020.76   1
   2  -2  -1  55247. 7628.80   1
  -2  -2   1  57567. 7564.06   1
   2   2  -1  52522. 6954.40   1
  -2   2   1  66280. 9082.81   1
   2  -2   0 347990.  44645.   1
  -2  -2   0 273806.  35096.   1
   2   2   0 305098.  39088.   1
  -2   2   0 247828.  31913.   1
  -2  -2  -1  22854. 3493.39   1
   2   2   1  28648. 4286.48   1
  -2  -2  -2 123415.  16175.   1
   2   2   2 139762.  18287.   1
  -2  -2  -3  48530. 6827.62   1
   2   2   3  47774. 6789.85   1
  -2  -2  -4 225897.  29269.   1
   2   2   4 194578.  25344.   1
  -2  -2  -5  97653.  13064.   1
   2   2   5 114972.  15185.   1
  -2  -2  -6  14955. 2862.15   1
   2   2   6 8459.66 2170.22   1
  -2  -2  -7  13639. 2770.43   1
   2   2   7  15835. 3015.91   1
  -2  -2  -8 2500.40 1603.99   1
   2   2   8  785.27 1920.42   1
  -2  -2  -9  425.95 1368.76   1
   2   2   9 -1208.3 1705.69   1
   2  -3 -10  226.33 1180.74   1
  -2  -3  10 -168.28 883.463   1
   2   3 -10 1734.02 974.372   1
  -2   3  10  -96.95 1676.56   1
   2  -3  -9 1270.84 1662.80   1
  -2  -3   9 1217.70 1133.26   1
   2   3  -9 2129.48 1046.67   1
  -2   3   9 3018.61 1790.39   1
   2  -3  -8 3741.57 1774.48   1
  -2  -3   8 4124.62 1124.90   1
   2   3  -8 3358.51 948.745   1
  -2   3   8 2404.10 1552.74   1
   2  -3  -7 8429.99 2112.76   1
  -2  -3   7 8950.62 1419.48   1
  -2   3   7 7162.12 1943.08   1
   2  -3  -6  10968. 2370.38   1
  -2   3   6  11103. 2390.88   1
   2  -3  -5  23186. 3833.28   1
  -2   3   5  31589. 4874.56   1
   2  -3  -4  38603. 5853.78   1
  -2  -3   4  25177. 3293.77   1
   2   3  -4  25088. 3288.37   1
  -2   3   4  28864. 4742.37   1
   2  -3  -3  59887. 8424.59   1
  -2  -3   3  52711. 6835.71   1
   2   3  -3  58430. 7582.94   1
  -2   3   3  53709. 7720.52   1
   2  -3  -2 7499.32 2104.13   1
  -2  -3   2 6517.39 1200.16   1
   2   3  -2 9589.96 1559.75   1
  -2   3   2 8343.67 2305.91   1
   2  -3   0 100108.  13315.   1
  -2  -3   0  94443.  12368.   1
   2   3   0  93310.  12231.   1
  -2   3   0 109765.  14543.   1
   2  -3   1  63313. 8643.10   1
  -2  -3  -1  72457. 9660.09   1
   2   3   1  90450.  11937.   1
  -2   3  -1  69031. 9382.24   1
  -2  -3  -2  32290. 4669.54   1
   2   3   2  34448. 4944.69   1
  -2  -3  -3  19752. 3166.98   1
   2   3   3  21797. 3455.62   1
  -2  -3  -4 2475.58 1290.26   1
   2   3   4 1992.71 1513.89   1
  -2  -3  -5  144.56 1430.27   1
   2   3   5 1225.25 1544.91   1
  -2  -3  -6  13574. 2646.61   1
   2   3   6 8729.42 2157.00   1
  -2  -3  -7 3879.14 1680.60   1
   2   3   7 5805.23 1827.62   1
  -2  -3  -8 9511.72 2280.01   1
   2   3   8 7885.07 2183.97   1
   2  -4  -9 -348.53 1504.72   1
  -2   4   9  326.95 1703.80   1
   2  -4  -8 1899.38 1515.51   1
  -2   4   8  731.59 1725.11   1
   2  -4  -7 8319.39 2254.92   1
  -2   4   7 3757.75 1610.73   1
   2  -4  -6 3709.20 1595.36   1
  -2   4   6 1699.76 1382.79   1
   2  -4  -5  17297. 3223.63   1
  -2  -4   5  17135. 2440.25   1
   2   4  -5  19576. 2688.96   1
  -2   4   5  17642. 3288.37   1
   2  -4  -4  18851. 3501.48   1
  -2  -4   4  20782. 2899.92   1
   2   4  -4  17807. 2518.75   1
  -2   4   4  29053. 4777.44   1
   2  -4  -3  21082. 3633.66   1
  -2  -4   3  22811. 3212.84   1
   2   4  -3  28972. 3981.65   1
  -2   4   3  21093. 3671.43   1
   2  -4  -2  16482. 3177.77   1
  -2  -4   2  18719. 2773.13   1
   2   4  -2  14432. 2228.48   1
  -2   4   2  10167. 2476.93   1
   2  -4  -1  31670. 4995.95   1
  -2  -4   1  49474. 6679.25   1
   2   4  -1  47936. 6506.60   1
  -2   4   1  52792. 7574.85   1
   2  -4   0  20507. 3493.39   1
  -2  -4   0  11017. 1879.15   1
   2   4   0 4793.63 1371.19   1
  -2   4   0  961.96 1591.31   1
   2  -4   1 4148.90 1686.54   1
  -2  -4  -1 2835.17 1146.48   1
   2   4   1 4985.16 1373.08   1
  -2   4  -1 6627.99 1749.93   1
   2  -4   2 8678.17 1963.04   1
  -2  -4  -2 9417.31 1835.44   1
   2   4   2 8780.68 1782.30   1
  -2   4  -2 6466.14 1730.24   1
  -2  -4  -3 5063.39 1457.78   1
   2   4   3 4143.51 1318.32   1
  -2  -4  -4  16987. 3034.80   1
   2   4   4  11068. 2248.99   1
  -2  -4  -5 -607.77 1382.79   1
   2   4   5 -169.95 1289.99   1
  -2  -4  -6 7760.98 2062.58   1
   2   4   6 5020.23 1831.13   1
  -2  -4  -7 8313.99 2189.10   1
   2   4   7  10855. 2437.55   1
  -2  -4  -8 2118.42 1557.86   1
   2   4   8 6101.96 1871.32   1
   2  -5  -8  -34.45 1520.10   1
  -2   5   8  951.44 1383.60   1
   2  -5  -7  204.67 1557.32   1
  -2  -5   7 -109.17 776.099   1
  -2   5   7 3550.04 1955.76   1
   2  -5  -6 6077.69 2076.88   1
  -2  -5   6 7097.38 1441.06   1
   2   5  -6 5789.04 1210.68   1
  -2   5   6 7021.84 2108.71   1
   2  -5  -5 3434.04 1943.35   1
  -2  -5   5 8964.11 1652.01   1
   2   5  -5 3641.76 1071.22   1
  -2   5   5 7439.97 2352.03   1
   2  -5  -4 4364.71 2322.63   1
  -2  -5   4  705.96 938.764   1
   2   5  -4 2015.64 1114.38   1
  -2   5   4 2264.63 1833.56   1
   2  -5  -3 2621.25 1789.59   1
  -2  -5   3 3312.65 1148.37   1
   2   5  -3 3061.77 1032.37   1
  -2   5   3 5702.72 1852.98   1
   2  -5  -2 4399.78 1872.67   1
  -2  -5   2 3711.89 1191.80   1
   2   5  -2 -338.55 968.977   1
  -2   5   2  510.12 1526.84   1
   2  -5  -1  208.04 1527.65   1
  -2  -5   1   55.25 1054.22   1
   2   5  -1 2188.02 1146.48   1
  -2   5   1 1760.99 1646.61   1
   2  -5   0  13669. 2818.99   1
  -2  -5   0 9730.23 2001.08   1
   2   5   0  12463. 2282.71   1
  -2   5   0  13116. 2613.97   1
   2  -5   1 1281.09 1497.44   1
  -2  -5  -1 1546.53 1238.74   1
   2   5   1 3444.83 1423.79   1
  -2   5  -1 2905.31 1448.34   1
   2  -5   2 1431.07 1393.85   1
  -2  -5  -2 -1080.7 1276.50   1
   2   5   2 2792.01 1427.03   1
  -2   5  -2   26.52 1032.64   1
   2  -5   3 8006.47 1916.91   1
  -2  -5  -3 9589.96 2104.93   1
   2   5   3  14945. 2767.73   1
  -2   5  -3 9142.15 2111.68   1
  -2  -5  -4 1437.55 1432.15   1
   2   5   4 2417.86 1394.39   1
  -2  -5  -5 9077.41 2191.53   1
   2   5   5 9139.46 2215.00   1
  -2  -5  -6 3655.24 1584.84   1
   2   5   6 7879.68 2087.67   1
   2  -6  -6 4105.74 1767.73   1
  -2  -6   6 4397.08 1171.30   1
   2   6  -6 4186.67 1052.87   1
  -2   6   6 1938.76 1525.22   1
   2  -6  -5 7083.89 2260.59   1
  -2  -6   5 4944.69 1361.48   1
   2   6  -5 5745.88 1329.38   1
  -2   6   5 7426.48 2384.94   1
   2  -6  -4  16105. 3563.52   1
  -2  -6   4  10391. 2012.41   1
   2   6  -4  14071. 2472.08   1
  -2   6   4 8605.33 2792.01   1
   2  -6  -3 3280.28 2068.25   1
  -2  -6   3 3800.91 1357.16   1
   2   6  -3 4968.97 1359.59   1
  -2   6   3 2053.95 1628.81   1
   2  -6  -2 5648.77 2197.19   1
  -2  -6   2 3425.95 1326.68   1
   2   6  -2 3107.63 1369.30   1
  -2   6   2 2601.29 1517.40   1
   2  -6  -1 4642.56 1968.98   1
  -2  -6   1 3857.56 1469.11   1
   2   6  -1 4113.83 1562.99   1
  -2   6   1 4850.28 1949.82   1
   2  -6   0  669.27 1857.56   1
  -2  -6   0 1468.03 1314.27   1
   2   6   0 3148.09 1447.53   1
  -2   6   0 1646.61 1816.56   1
   2  -6   1 1196.11 1601.56   1
  -2  -6  -1 6657.67 1904.77   1
   2   6   1 3539.25 1462.91   1
  -2   6  -1 2986.24 1612.35   1
   2  -6   2 5980.57 1906.39   1
  -2  -6  -2  452.66 1531.43   1
   2   6   2 3469.11 1722.15   1
  -2   6  -2 6768.27 1968.98   1
   2  -6   3   96.25 1351.23   1
  -2  -6  -3 2465.06 1676.02   1
   2   6   3 1365.25 1646.61   1
  -2   6  -3  507.15 1403.02   1
   2  -6   4 2167.52 1427.30   1
  -2  -6  -4 3771.24 1997.30   1
   2   6   4 -1791.7 1621.80   1
  -2   6  -4  -69.65 1289.45   1
   2  -6   5 -909.36 977.879   1
  -2  -6  -5 1203.94 1421.90   1
   2   6   5 -1083.4 1453.20   1
   2  -7  -3 4839.49 2180.47   1
  -2  -7   3 2475.58 1171.03   1
   2   7  -3  649.04 1012.14   1
  -2   7   3 2169.14 1568.11   1
   2  -7  -2 5217.15 1865.12   1
  -2  -7   2 5098.46 1447.80   1
   2   7  -2 4755.86 1452.93   1
  -2   7   2 5411.38 1835.71   1
   2  -7  -1 1951.71 1660.10   1
  -2  -7   1  821.69 1105.47   1
   2   7  -1 2805.50 1386.83   1
  -2   7   1 6371.72 1953.60   1
   2  -7   0 3560.83 1841.38   1
  -2  -7   0 8003.77 1935.80   1
   2   7   0 3865.66 1449.69   1
  -2   7   0 2512.00 1668.73   1
   2   7   1 6490.42 1783.11   1
  -2   7  -1 3452.92 1509.58   1
   2  -7   2 -1024.8 1279.47   1
  -2  -7  -2 1017.80 1430.81   1
   2   7   2 -213.95 1360.94   1
  -2   7  -2 -864.04 1206.10   1
   3   0 -11  719.99 1275.42   1
  -3   0  11 -916.64 1029.13   1
   3   0 -10  557.59 1437.01   1
  -3   0  10 -1097.1 1171.84   1
   3   0  -9  20968. 3431.34   1
  -3   0   9  24645. 3838.68   1
   3   0  -8  12466. 2296.46   1
  -3   0   8  10623. 2056.11   1
   3   0  -7 1500.67 1025.09   1
  -3   0   7 1301.59 1087.67   1
   3   0  -6  21052. 3398.97   1
  -3   0   6  22112. 3571.62   1
   3   0  -5  11980. 2257.62   1
  -3   0   5  10208. 2119.77   1
   3   0  -3  52684. 7100.07   1
  -3   0   3  42056. 5880.76   1
   3  -1 -11 4707.31 1587.27   1
  -3  -1  11 6857.29 1680.06   1
   3   1 -11 5022.92 1459.94   1
  -3   1  11 4192.06 1558.40   1
   3  -1 -10 1843.81 1389.80   1
  -3  -1  10 1688.70 1347.18   1
   3   1 -10  773.94 1008.36   1
  -3   1  10  366.06 1376.85   1
   3  -1  -9 4275.69 1639.06   1
  -3  -1   9 3355.81 1182.90   1
   3   1  -9 2940.38 1127.87   1
  -3   1   9 1405.99 1254.92   1
   3  -1  -8 4712.70 1549.77   1
  -3  -1   8 2645.80 1046.13   1
   3   1  -8  352.58 866.198   1
  -3   1   8  807.66 1242.24   1
   3  -1  -7 6458.05 1661.72   1
  -3  -1   7 6080.38 1366.60   1
   3  -1  -6  43108. 6226.05   1
  -3  -1   6  42056. 5789.04   1
   3   1  -6  46776. 6425.67   1
  -3   1   6  49204. 7056.91   1
   3  -1  -5 2362.56 1353.92   1
  -3  -1   5 2816.29 1368.22   1
   3   1  -5 5586.72 1537.36   1
  -3   1   5  830.05 1361.75   1
   3   1  -4  95927.  12495.   1
  -3   1   4 112544.  14972.   1
   3  -1  -3 174831.  22762.   1
  -3   1   3 164607.  21516.   1
   3  -1  -2  32830. 4850.28   1
  -3   1   2  32425. 5063.39   1
   3   1   8 2279.47 1690.85   1
  -3  -1  -9 2783.92 1391.42   1
   3   1   9 1666.84 1443.21   1
   3  -2 -10  391.96 1384.41   1
  -3  -2  10 -236.93 1086.05   1
   3   2 -10 1665.50 1061.23   1
  -3   2  10 2028.05 1504.18   1
   3  -2  -9 2150.25 1416.51   1
  -3  -2   9  792.01 1016.18   1
   3   2  -9  850.28 928.243   1
  -3   2   9 1767.20 1439.98   1
   3  -2  -8 4529.26 1742.38   1
  -3  -2   8 6412.19 1288.64   1
   3   2  -8 6015.64 1288.37   1
  -3   2   8 7682.75 2048.55   1
   3  -2  -7  32209. 4928.51   1
  -3  -2   7  25735. 3593.20   1
   3   2  -7  26164. 3657.94   1
  -3   2   7  29242. 4691.12   1
   3  -2  -6  53116. 7626.11   1
  -3  -2   6  38791. 5217.15   1
   3   2  -6  37766. 5087.67   1
  -3   2   6  51389. 7466.95   1
   3  -2  -5  15643. 2997.03   1
  -3  -2   5  16836. 2422.98   1
   3  -2  -4  56299. 7963.30   1
  -3   2   4  62018. 8769.89   1
   3  -2  -3 199110.  25989.   1
  -3   2   3 193310.  25290.   1
   3  -2  -2 106663.  14192.   1
  -3   2   2 101753.  13636.   1
   3  -2  -1  13706. 2700.29   1
  -3   2   1  26604. 4299.97   1
   3   2   3 184920.  23990.   1
  -3  -2  -4 120286.  15819.   1
   3   2   4  98354.  13094.   1
  -3  -2  -5  48152. 6781.76   1
   3   2   5  47613. 6779.06   1
  -3  -2  -6  281.36 1276.23   1
   3   2   6 1216.62 1636.36   1
  -3  -2  -7 5950.90 1950.63   1
   3   2   7 2251.68 1770.16   1
  -3  -2  -8 7038.03 1970.59   1
   3   2   8 5913.13 2070.14   1
   3  -3 -10 2399.51 1439.98   1
  -3  -3  10  341.79 780.145   1
   3   3 -10 1711.62 768.275   1
  -3   3  10 3204.74 1680.33   1
   3  -3  -9 3973.56 1862.42   1
  -3  -3   9  845.70 961.693   1
   3   3  -9 2762.34 822.497   1
  -3   3   9 3544.64 1790.39   1
   3  -3  -8 2196.92 1684.92   1
  -3  -3   8 3841.38 922.578   1
   3   3  -8 3598.59 899.918   1
  -3   3   8 4076.07 1722.95   1
   3  -3  -7  14311. 2859.45   1
  -3  -3   7  12493. 1786.35   1
   3   3  -7  11049. 1616.40   1
  -3   3   7  13523. 2988.94   1
   3  -3  -6  24562. 4224.44   1
  -3  -3   6  15492. 2088.21   1
   3   3  -6  14845. 2017.53   1
  -3   3   6  15789. 3210.14   1
   3  -3  -5 5861.88 1801.72   1
  -3   3   5 5476.12 1878.07   1
   3  -3  -4  24661. 4159.69   1
  -3   3   4  30483. 4874.56   1
   3  -3  -3  46264. 6784.46   1
  -3   3   3  21465. 3884.54   1
   3  -3  -2  43081. 6352.84   1
   3   3  -2  56380. 7445.37   1
  -3   3   2  45751. 6738.60   1
   3  -3  -1  45266. 6517.39   1
  -3  -3   1  38791. 5327.75   1
   3   3  -1  35959. 5006.74   1
  -3   3   1  43296. 6331.26   1
   3   3   0  35797. 5111.95   1
  -3   3   0  32965. 5022.92   1
  -3  -3  -1  21610. 3390.88   1
   3   3   1  17963. 2980.84   1
  -3  -3  -2  13415. 2586.73   1
   3   3   2  18214. 3172.37   1
  -3  -3  -3 9444.29 2226.60   1
   3   3   3 8891.28 2197.19   1
  -3  -3  -4  16666. 3053.68   1
   3   3   4  29053. 4575.12   1
  -3  -3  -5  16911. 3150.79   1
   3   3   5  20097. 3587.80   1
  -3  -3  -6  23186. 3987.05   1
   3   3   6  17532. 3234.42   1
  -3  -3  -7  18020. 3434.04   1
   3   3   7  12401. 2708.39   1
  -3  -3  -8 4815.21 1913.14   1
   3   3   8 3539.25 1780.95   1
   3  -4  -9 5578.63 1913.94   1
  -3  -4   9 5403.29 992.985   1
   3   4  -9 3806.31 796.870   1
  -3   4   9 4046.39 1856.49   1
   3  -4  -8 2014.03 1671.97   1
  -3  -4   8 3323.44 717.830   1
  -3   4   8  994.60 1755.33   1
   3  -4  -7 6547.07 2067.44   1
  -3   4   7 4707.31 2381.71   1
   3  -4  -6  11578. 2840.57   1
  -3  -4   6  15678. 2062.85   1
   3   4  -6  19846. 2595.90   1
  -3   4   6  22201. 4140.81   1
   3  -4  -5  10688. 2527.11   1
  -3  -4   5  16026. 2196.92   1
   3   4  -5  16035. 2183.43   1
  -3   4   5  19134. 3544.64   1
   3  -4  -4 8861.60 2338.28   1
  -3  -4   4  10782. 1659.02   1
   3   4  -4 8991.09 1401.40   1
  -3   4   4  11484. 2682.49   1
   3  -4  -3 4844.88 1849.47   1
  -3  -4   3 3390.88 947.935   1
   3   4  -3 1884.54 756.406   1
  -3   4   3 -2393.0 1785.00   1
   3  -4  -2  21057. 3765.84   1
  -3  -4   2  11772. 2002.16   1
   3   4  -2 8915.56 1607.77   1
  -3   4   2 7971.40 2192.61   1
   3  -4  -1 2862.15 1582.95   1
  -3  -4   1 7189.09 1598.87   1
   3   4  -1 4656.05 1260.32   1
  -3   4   1 3331.53 1742.92   1
   3  -4   0  18247. 3234.42   1
  -3  -4   0  22886. 3528.46   1
   3   4   0  20388. 3166.98   1
  -3   4   0  19881. 3407.06   1
   3  -4   2 1574.59 1293.77   1
  -3  -4  -2 2867.54 1526.57   1
   3   4   2 4480.71 1514.43   1
  -3  -4  -3 7984.89 2022.66   1
   3   4   3 9436.19 2155.11   1
  -3  -4  -4 -533.31 1797.14   1
   3   4   4 1198.81 1506.34   1
  -3  -4  -5 7218.77 2132.45   1
   3   4   5 5646.07 1884.81   1
  -3  -4  -6 3668.73 1789.32   1
   3   4   6 2185.59 1666.84   1
  -3  -4  -7 8645.80 2202.05   1
   3   4   7 5762.07 1963.31   1
   3  -5  -8 -369.03 1579.17   1
  -3   5   8  322.90 1561.10   1
   3  -5  -7 6833.01 2251.41   1
  -3  -5   7 4647.96 883.733   1
   3   5  -7 4599.40 844.887   1
  -3   5   7 5913.13 2314.54   1
   3  -5  -6  25169. 4604.80   1
  -3  -5   6  22638. 3129.21   1
   3   5  -6  17858. 2504.72   1
  -3   5   6  22239. 4246.02   1
   3  -5  -5 2696.25 1952.52   1
  -3  -5   5 1813.59 832.208   1
   3   5  -5 3115.72 911.518   1
  -3   5   5 3288.37 1924.20   1
   3  -5  -4 1064.74 1794.17   1
  -3  -5   4 6862.69 1381.71   1
   3   5  -4 2600.21 926.624   1
  -3   5   4 4146.21 1783.92   1
   3  -5  -3 5443.75 2130.02   1
  -3  -5   3 4728.89 1132.72   1
   3   5  -3 4944.69 1264.63   1
  -3   5   3 1886.97 1712.16   1
   3  -5  -2 4418.66 2075.80   1
  -3  -5   2 6932.82 1398.97   1
   3   5  -2 8125.16 1609.66   1
  -3   5   2 3981.65 1984.35   1
   3  -5  -1 6770.97 2103.59   1
  -3  -5   1  11343. 1994.06   1
   3   5  -1 8589.15 1661.18   1
  -3   5   1 4966.27 1765.31   1
   3  -5   0  17143. 3250.60   1
  -3  -5   0  15020. 2614.24   1
   3   5   0  10000. 1921.77   1
  -3   5   0  11451. 2447.80   1
   3  -5   1 1247.37 1374.96   1
  -3  -5  -1 2061.77 1130.29   1
   3   5   1 2886.43 1145.40   1
  -3   5  -1 2395.47 1491.50   1
   3  -5   2  11505. 2494.20   1
  -3  -5  -2 5910.43 1593.47   1
   3   5   2 5721.60 1706.50   1
  -3   5  -2 8920.95 2150.52   1
   3  -5   3 -175.07 1306.18   1
  -3  -5  -3  642.30 1413.00   1
   3   5   3 -1167.8 1428.65   1
  -3  -5  -4 4386.29 1664.15   1
   3   5   4 2471.00 1454.81   1
  -3  -5  -5 2393.58 1540.60   1
   3   5   5 1836.25 1471.27   1
  -3  -5  -6  936.88 1421.63   1
   3   5   6  534.12 1250.07   1
   3  -6  -6 1565.42 1636.90   1
  -3  -6   6  616.67 748.583   1
   3   6  -6 2138.92 842.190   1
  -3   6   6 4567.03 2288.10   1
   3  -6  -5  11610. 2961.96   1
  -3  -6   5 5907.74 1346.64   1
   3   6  -5 7952.51 1505.80   1
  -3   6   5 9522.52 2419.74   1
   3  -6  -4 -3072.6 1694.36   1
  -3  -6   4 -319.40 1056.38   1
   3   6  -4  563.53 984.353   1
  -3   6   4  914.75 1826.54   1
   3  -6  -3  124.06 2121.66   1
  -3  -6   3  756.41 1275.42   1
   3   6  -3 1627.46 1101.70   1
  -3   6   3 3301.86 1850.28   1
   3  -6  -2 1762.88 2049.63   1
  -3  -6   2 6096.57 1652.28   1
   3   6  -2 4888.04 1579.44   1
  -3   6   2 6355.54 2390.34   1
   3  -6  -1 3970.86 2066.63   1
  -3  -6   1  11446. 2203.94   1
   3   6  -1 9438.89 2119.77   1
  -3   6   1 8651.19 2450.50   1
   3  -6   0 5022.92 2066.09   1
  -3  -6   0 1463.72 1164.55   1
   3   6   0 1789.05 1455.35   1
  -3   6   0  270.30 1754.25   1
   3  -6   1 1626.11 1507.42   1
  -3  -6  -1  425.95 1284.60   1
   3   6   1 1012.68 1184.51   1
  -3   6  -1 1328.03 1550.31   1
   3  -6   2 1169.68 1568.65   1
  -3  -6  -2  -20.85 1218.23   1
   3   6   2 2528.19 1477.74   1
  -3   6  -2  172.16 1198.00   1
   3  -6   3 3612.08 1589.42   1
  -3  -6  -3 1581.87 1406.80   1
   3   6   3 3299.16 1422.98   1
  -3   6  -3 2972.75 1556.78   1
   3  -6   4 2137.58 1219.04   1
  -3  -6  -4 2905.31 1391.15   1
   3   6   4 2324.25 1238.47   1
   3  -7  -2  929.32 1497.98   1
  -3  -7   2 2087.67 1116.54   1
   3   7  -2 1941.73 1189.91   1
  -3   7   2  930.40 1547.88   1
   3  -7  -1  248.21 1524.14   1
  -3  -7   1 -284.87 1213.38   1
   3   7  -1 1267.87 1179.39   1
  -3   7   1 2913.40 1652.01   1
   3  -7   0 2856.75 1806.31   1
  -3  -7   0 3393.58 1494.74   1
   3   7   0 1653.63 1209.60   1
  -3   7   0   27.19 1369.84   1
   4   0 -11  16776. 2991.63   1
  -4   0  11 9687.07 2092.80   1
   4   0 -10  19927. 3390.88   1
  -4   0  10  26730. 4251.41   1
   4   0  -9 -388.99 1305.64   1
  -4   0   9  150.26 1343.40   1
   4   0  -8  822.50 1530.08   1
  -4   0   8 -1444.8 1489.88   1
   4   0  -7 1997.03 1045.32   1
  -4   0   7  763.69 1274.34   1
   4   0  -5  16083. 2759.64   1
  -4   0   5  21643. 3444.83   1
   4   0  -4  38414. 5438.35   1
  -4   0   4  26075. 4019.42   1
   4  -1 -11 1518.48 1280.28   1
  -4  -1  11 3817.10 1431.34   1
   4   1 -11 4750.47 1398.43   1
  -4   1  11 4483.41 1600.21   1
   4  -1 -10 2881.03 1567.03   1
  -4  -1  10 4324.25 1456.43   1
   4   1 -10 8804.96 1898.84   1
  -4   1  10 3703.80 1713.24   1
   4  -1  -9 4596.70 1675.21   1
  -4  -1   9 5492.31 1588.08   1
   4   1  -9 3663.34 1203.13   1
  -4   1   9 7890.47 2215.00   1
   4  -1  -8  26701. 4345.83   1
  -4  -1   8  15716. 2697.60   1
   4   1  -8 7663.87 1859.18   1
  -4   1   8 6646.88 2002.16   1
   4  -1  -7 1912.06 1276.77   1
  -4  -1   7 4893.44 1433.23   1
   4   1  -7 1827.08 1124.09   1
  -4   1   7 2383.33 1489.61   1
   4   1  -6 5807.93 1444.29   1
  -4   1   6 9754.51 2285.94   1
   4  -1  -5  43162. 6244.94   1
  -4  -1   5  33639. 4799.02   1
   4  -1  -4 370920.  47747.   1
  -4   1   4 384947.  49582.   1
   4  -1  -3  79930.  10772.   1
  -4   1   3  67979. 9393.03   1
   4  -2 -10 -494.74 1420.82   1
  -4  -2  10   93.15 931.480   1
   4   2 -10  705.15 919.071   1
  -4   2  10 2499.59 1624.49   1
   4  -2  -9 4755.86 1753.98   1
  -4  -2   9 5001.34 1449.42   1
   4   2  -9 3466.41 1199.89   1
  -4   2   9 4181.27 1958.19   1
   4   2  -8  940.65 1119.23   1
  -4   2   8 5818.72 2364.44   1
   4  -2  -7 3479.90 1530.08   1
  -4  -2   7 1782.30 974.372   1
   4   2  -7 3649.85 1057.73   1
  -4   2   7 1774.48 1415.16   1
   4  -2  -6 8872.39 2159.70   1
  -4  -2   6 8440.78 1556.78   1
   4   2  -6 5147.01 1209.60   1
  -4   2   6 7966.00 2245.21   1
   4  -2  -5  20259. 3577.01   1
  -4   2   5  40302. 6128.94   1
   4  -2  -4  10861. 2590.77   1
  -4   2   4  10197. 2606.96   1
   4  -2  -3 125681.  16668.   1
  -4   2   3 133963.  17796.   1
   4  -2  -2  33234. 5138.92   1
  -4   2   2  17313. 3318.04   1
   4  -2  -1 8583.75 2162.12   1
   4   2   7 6749.39 1992.98   1
  -4  -2  -8  303.75 1274.88   1
   4   2   8 1242.51 1339.90   1
   4  -3 -10  156.46 1304.29   1
  -4  -3  10  216.99 709.198   1
   4   3 -10 -493.12 766.117   1
  -4   3  10  915.02 1495.82   1
   4  -3  -9 7261.93 2173.45   1
  -4  -3   9 3679.52 1041.27   1
   4   3  -9 3304.56 968.437   1
  -4   3   9 3895.33 1977.34   1
   4  -3  -8 6217.96 2197.46   1
  -4  -3   8 3960.07 1067.17   1
   4  -3  -7 1790.93 1454.27   1
  -4  -3   7  732.94 703.263   1
   4   3  -7  664.15 670.083   1
  -4   3   7 -323.44 1460.75   1
   4  -3  -6 1338.01 1458.05   1
  -4   3   6 2899.92 1826.27   1
   4  -3  -5  16026. 3180.47   1
  -4   3   5  21810. 3898.03   1
   4  -3  -4 9749.11 2424.06   1
  -4   3   4  16269. 3277.58   1
   4  -3  -3  27057. 4402.48   1
  -4   3   3  25999. 4256.81   1
   4  -3  -2  52738. 7547.87   1
  -4   3   2  53331. 7631.50   1
   4  -3  -1  19258. 3493.39   1
  -4   3   1  12285. 2808.20   1
   4  -3   0  10405. 2205.02   1
  -4   3   0  13445. 2573.51   1
   4   3   2  17656. 2916.10   1
  -4  -3  -3 6897.75 1753.98   1
   4   3   3  12587. 2417.59   1
  -4  -3  -4 7202.58 1886.16   1
   4   3   4 4731.58 1656.59   1
  -4  -3  -5 9312.10 2219.04   1
   4   3   5 8340.97 2129.75   1
  -4  -3  -6 4208.25 1770.97   1
   4   3   6 2403.56 1939.03   1
  -4  -3  -7 4766.65 1643.65   1
   4   3   7 8524.41 2296.46   1
   4  -4  -9 4264.90 1957.11   1
  -4  -4   9 4448.34 857.026   1
   4   4  -9 4761.26 871.593   1
  -4   4   9 6784.46 2260.05   1
   4  -4  -8 5842.99 2272.46   1
  -4  -4   8 5721.60 933.368   1
   4   4  -8 4661.45 813.056   1
  -4   4   8 4923.11 2366.87   1
   4  -4  -7  14413. 3145.40   1
  -4   4   7  16903. 3390.88   1
   4  -4  -6  13485. 2961.96   1
  -4   4   6  13415. 2972.75   1
   4  -4  -5 -1527.4 1855.41   1
  -4   4   5 2937.68 1791.20   1
   4  -4  -4 8292.41 2340.70   1
  -4   4   4 6185.59 2143.78   1
   4  -4  -3  13822. 2886.43   1
   4   4  -3  13364. 2088.75   1
  -4   4   3  12921. 2802.80   1
   4  -4  -2  22379. 3892.63   1
  -4  -4   2  20906. 3086.05   1
   4   4  -2  21370. 3188.56   1
  -4   4   2  23863. 4041.00   1
   4  -4  -1 3533.85 1731.05   1
  -4  -4   1 5087.67 1355.00   1
   4   4  -1  739.68 1214.19   1
  -4   4   1 2940.38 1629.89   1
   4  -4   0  29970. 4685.73   1
  -4  -4   0  36418. 5200.97   1
   4   4   0  34340. 4974.37   1
  -4   4   0  34637. 5219.85   1
   4  -4   1 7623.41 1907.47   1
  -4  -4  -1 7143.24 1789.86   1
   4   4   1  10364. 2166.17   1
  -4   4  -1 8848.12 1972.75   1
  -4  -4  -2 2488.53 1540.60   1
   4   4   2 4388.99 1645.53   1
  -4  -4  -3 2030.21 1746.42   1
   4   4   3 2401.40 1622.06   1
  -4  -4  -4 3811.70 1918.26   1
   4   4   4 7091.98 2173.18   1
  -4  -4  -5  626.65 2016.18   1
   4   4   5 4664.14 2161.04   1
  -4  -4  -6 7124.35 2365.25   1
   4   4   6 8251.95 2374.96   1
   4  -5  -8  551.39 1911.79   1
  -4   5   8 1846.23 1922.58   1
   4  -5  -7 1862.69 2033.18   1
  -4  -5   7 1388.18 591.043   1
   4   5  -7 1329.65 511.464   1
  -4   5   7 1076.61 1582.95   1
   4  -5  -6 6916.64 2334.23   1
  -4  -5   6  11066. 1751.01   1
   4   5  -6 8475.85 1387.10   1
  -4   5   6 6876.17 2225.25   1
   4  -5  -5  17586. 3652.55   1
  -4  -5   5  20440. 2975.45   1
   4   5  -5  21497. 3064.47   1
  -4   5   5  18864. 3771.24   1
   4  -5  -4 1085.24 1680.60   1
  -4  -5   4 -420.02 1196.65   1
   4   5  -4 4712.70 1192.07   1
  -4   5   4 1757.48 1947.93   1
   4  -5  -3 7016.45 2546.80   1
  -4  -5   3  452.93 1020.50   1
   4   5  -3 3639.06 1273.54   1
  -4   5   3 9063.92 2557.05   1
   4  -5  -2 9177.22 2608.58   1
  -4  -5   2 8583.75 1778.80   1
   4   5  -2 5789.04 1458.86   1
  -4   5   2 3568.92 1880.76   1
   4  -5  -1  13445. 2964.66   1
  -4  -5   1  13604. 2396.01   1
   4   5  -1  11807. 2176.69   1
  -4   5   1  16145. 3088.75   1
   4  -5   0 1018.07 1546.80   1
  -4  -5   0  603.45 1317.24   1
   4   5   0 6118.15 1702.72   1
  -4   5   0  510.65 1435.66   1
   4   5   1 4321.55 1536.28   1
  -4   5  -1 3029.40 1614.78   1
   4  -5   2  837.33 1505.80   1
  -4  -5  -2  987.05 1517.13   1
   4   5   2 -939.03 1668.19   1
  -4   5  -2 1387.37 1512.00   1
  -4  -5  -3   82.92 1790.12   1
   4   5   3 3323.44 1554.36   1
  -4  -5  -4 -588.08 1745.08   1
   4   5   4 1275.42 1649.85   1
  -4  -5  -5 2109.79 1497.17   1
   4   5   5  -22.90 1472.89   1
   4  -6  -6   20.39 1493.66   1
  -4  -6   6    2.53 637.712   1
   4   6  -6  182.33 729.700   1
  -4   6   6 -1751.3 1345.56   1
   4  -6  -5 -598.33 1671.16   1
  -4  -6   5 -144.24 773.131   1
   4   6  -5  619.10 759.104   1
  -4   6   5  936.07 1602.91   1
   4  -6  -4 -215.54 1819.53   1
  -4  -6   4  330.73 878.607   1
   4   6  -4 1555.43 883.733   1
  -4   6   4 2191.80 1867.28   1
   4  -6  -3 2349.07 2163.74   1
  -4  -6   3 2365.25 1019.96   1
   4   6  -3  484.22 913.676   1
  -4   6   3 3261.39 2171.30   1
   4  -6  -2 3361.21 2165.36   1
  -4  -6   2 1288.10 1024.55   1
   4   6  -2 6528.18 1666.31   1
  -4   6   2 3790.12 1963.85   1
   4  -6  -1 2161.85 1662.80   1
  -4  -6   1 2361.75 1172.91   1
   4   6  -1 2926.89 1210.41   1
  -4   6   1 -2401.9 2080.12   1
   4  -6   0 2800.11 1875.91   1
  -4  -6   0 3226.33 1299.16   1
   4   6   0  -59.99 1271.65   1
  -4   6   0  -51.87 1674.94   1
   4   6   1 3978.95 1480.98   1
  -4   6  -1 2886.43 1576.48   1
   4  -6   2 2564.87 1522.52   1
  -4  -6  -2 2334.23 1333.15   1
   4   6   2 3277.58 1464.53   1
  -4   6  -2 3603.99 1564.61   1
   4  -6   3   25.83 1223.36   1
  -4  -6  -3 1105.74 1255.19   1
   4   6   3  462.91 1171.03   1
  -4   6  -3 -1525.0 1131.91   1
   5   0 -11  17605. 3172.37   1
  -5   0  11  13091. 2659.02   1
   5   0 -10  31670. 4960.88   1
  -5   0  10  28190. 4526.57   1
   5   0  -9 2970.05 1371.46   1
  -5   0   9 3760.45 1507.69   1
   5   0  -8 9058.53 2146.48   1
  -5   0   8 9892.09 2185.59   1
   5   0  -7 5929.32 1649.04   1
  -5   0   7 7472.34 1850.55   1
   5   0  -6  45724. 6479.63   1
  -5   0   6  50796. 7118.96   1
   5   0  -5 9964.92 2191.80   1
  -5   0   5 9959.53 2233.07   1
   5   0  -4 -1875.6 1618.02   1
  -5   0   4 3531.15 1610.20   1
   5   1 -11 5969.78 1664.96   1
   5  -1 -10 4475.31 1949.82   1
  -5  -1  10  10167. 2187.75   1
   5   1 -10 9954.13 2136.77   1
  -5   1  10 9784.18 2544.10   1
   5  -1  -9  737.25 1328.57   1
  -5  -1   9 2004.85 1472.89   1
   5   1  -9 1429.73 1076.61   1
  -5   1   9 1290.80 1573.24   1
   5  -1  -8  24367. 4043.70   1
  -5  -1   8  18257. 3077.96   1
   5   1  -8  24756. 3830.59   1
  -5   1   8  25463. 4267.60   1
   5  -1  -7  22012. 3717.29   1
  -5  -1   7  20780. 3272.18   1
   5   1  -7  20979. 3264.09   1
  -5   1   7  19088. 3415.16   1
   5  -1  -6  15897. 2964.66   1
  -5  -1   6  12984. 2448.88   1
   5   1  -6  12997. 2272.73   1
  -5   1   6  11762. 2512.81   1
   5  -1  -5  15584. 2845.96   1
   5   1  -5  11670. 2174.53   1
  -5   1   5 7618.01 2173.72   1
   5  -1  -4 6412.19 1966.82   1
  -5   1   4 5832.20 2032.64   1
   5  -1  -3 116590.  15409.   1
  -5   1   3 128756.  16984.   1
   5  -2 -10 4086.86 1845.97   1
  -5  -2  10 5559.75 1478.01   1
   5   2 -10 4054.49 1361.21   1
  -5   2  10 3911.51 2079.58   1
   5  -2  -9 3334.23 1540.87   1
  -5  -2   9 1706.77 1281.36   1
   5   2  -9 5020.23 1476.66   1
  -5   2   9 3703.80 1951.44   1
   5  -2  -8 8448.87 2157.81   1
  -5  -2   8 4469.92 1359.32   1
   5   2  -8 4642.56 1338.28   1
  -5   2   8 6854.59 2167.52   1
   5   2  -7 8977.60 1693.55   1
  -5   2   7 3709.20 1844.89   1
   5  -2  -6 8305.90 2279.74   1
   5   2  -6 6789.85 1500.40   1
  -5   2   6  10472. 2604.53   1
   5  -2  -5 -214.38 1646.88   1
  -5   2   5 2659.83 1674.13   1
   5  -2  -4  20995. 3598.59   1
  -5   2   4  23920. 4057.19   1
   5  -2  -3 4329.64 2123.01   1
  -5   2   3  14122. 3072.56   1
   5  -2  -2  51416. 7278.12   1
  -5   2   2  52981. 7545.18   1
   5  -3 -10 3479.90 1811.17   1
  -5  -3  10  802.80 913.946   1
   5   3 -10 1201.78 951.172   1
  -5   3  10 1075.53 1873.21   1
   5  -3  -9 1020.77 1530.08   1
  -5  -3   9 3258.70 1016.18   1
   5   3  -9  762.88 899.379   1
  -5   3   9 1118.42 1453.73   1
   5  -3  -8 6962.50 2215.27   1
  -5  -3   8 5565.14 1266.79   1
   5   3  -8 7024.54 1420.01   1
  -5   3   8 2716.48 1730.24   1
   5  -3  -7 3113.03 1869.16   1
  -5   3   7 3620.17 2097.65   1
   5  -3  -6  15514. 3218.23   1
  -5   3   6  12271. 2924.19   1
   5  -3  -5 9536.00 2413.00   1
  -5   3   5  11637. 2765.04   1
   5  -3  -4  21333. 3760.45   1
  -5   3   4  12735. 2765.04   1
   5  -3  -3 1643.65 1482.06   1
  -5   3   3 2940.38 1698.95   1
   5  -3  -2  25409. 4210.95   1
  -5   3   2  29296. 4707.31   1
   5  -3  -1 9333.68 2299.97   1
  -5   3   1  10415. 2403.29   1
   5   3   6   72.40 1303.75   1
   5  -4  -9 -1899.9 1407.88   1
  -5  -4   9  441.60 613.164   1
   5   4  -9  139.41 546.263   1
  -5   4   9 1411.92 1316.97   1
   5  -4  -8 1411.38 1663.34   1
  -5   4   8  415.43 1445.37   1
   5  -4  -7 8899.37 2601.29   1
  -5   4   7  11826. 3018.61   1
   5  -4  -6 7181.00 2465.87   1
  -5   4   6 3361.21 2094.41   1
   5  -4  -5  15225. 3288.37   1
  -5   4   5  19253. 3790.12   1
   5  -4  -4 4326.94 1960.61   1
  -5   4   4 4388.99 1904.77   1
   5  -4  -3 5659.56 2116.80   1
  -5   4   3  13685. 2937.68   1
   5  -4  -2 2203.94 1857.83   1
  -5   4   2 -1073.4 1551.66   1
   5  -4  -1  13167. 2792.01   1
  -5   4   1 5905.04 1976.80   1
   5  -4   0 5985.97 1950.63   1
  -5   4   0 6552.46 1895.33   1
   5   4   1 2840.57 1345.56   1
  -5  -4  -2 1631.24 1551.39   1
   5   4   2 2246.83 1480.71   1
  -5  -4  -3 3703.80 1758.56   1
   5   4   3 2719.18 1501.48   1
  -5  -4  -4 3002.42 1696.52   1
   5   4   4 1678.71 1648.50   1
  -5  -4  -5 -434.31 1347.72   1
   5   4   5 -1725.4 1474.51   1
   5  -5  -7 5457.24 2114.65   1
  -5   5   7 4879.95 2036.96   1
   5  -5  -6 8991.09 2605.88   1
  -5   5   6 8171.02 2382.79   1
   5  -5  -5 2669.54 2194.22   1
  -5   5   5 8082.00 2648.50   1
   5  -5  -4 6420.28 2563.53   1
   5   5  -4  12768. 2120.31   1
  -5   5   4 8872.39 2606.42   1
   5  -5  -3 5427.56 2333.15   1
  -5  -5   3 4906.93 1404.91   1
   5   5  -3 7658.48 1693.01   1
  -5   5   3 8718.63 2463.18   1
   5  -5  -2  13372. 3088.75   1
  -5  -5   2 9560.28 1873.21   1
   5   5  -2  16890. 2829.78   1
  -5   5   2  12916. 2934.98   1
   5  -5  -1 4405.17 2156.46   1
  -5  -5   1 2110.06 1278.12   1
   5   5  -1 -688.97 1247.37   1
  -5   5   1 1479.36 1591.58   1
   5  -5   0  10297. 2595.09   1
  -5  -5   0 3741.57 1577.28   1
   5   5   0 2512.00 1533.04   1
  -5   5   0 3585.11 2180.47   1
   5  -5   1 8599.94 2234.42   1
  -5  -5  -1 4647.96 1876.72   1
   5   5   1 3415.16 1594.28   1
  -5   5  -1 2988.94 1638.52   1
  -5  -5  -2 7715.13 2211.49   1
   5   5   2 6549.76 1906.39   1
  -5  -5  -3 1832.75 1749.39   1
   5   5   3 -1046.9 1692.74   1
  -5  -5  -4 1897.22 1496.90   1
   5   5   4 1204.21 1727.54   1
   5  -6  -5  316.43 1468.84   1
  -5  -6   5 2716.48 1150.52   1
   5   6  -5 1254.38 835.715   1
  -5   6   5 -1348.8 1804.42   1
   5  -6  -4 2713.78 1990.56   1
  -5  -6   4 4739.68 1399.78   1
   5   6  -4 1740.76 976.260   1
  -5   6   4 2029.40 1911.25   1
   5  -6  -3 3166.98 2023.74   1
  -5  -6   3 5721.60 1483.14   1
   5   6  -3 3660.64 1360.40   1
  -5   6   3 4105.74 1862.15   1
   5  -6  -2 -1210.7 1695.71   1
  -5  -6   2 1201.78 1331.53   1
   5   6  -2  301.86 1299.43   1
  -5   6   2  169.60 1471.54   1
   5  -6  -1 5039.11 2022.39   1
  -5  -6   1 2614.51 1344.21   1
   5   6  -1 1603.72 1223.09   1
  -5   6   1 2447.26 1465.06   1
   5  -6   0 -2199.1 1270.30   1
  -5  -6   0 -1330.2 1429.73   1
   5   6   0 -2462.1 1468.84   1
  -5   6   0 1366.06 1252.49   1
   5  -6   1 -394.12 1553.55   1
  -5  -6  -1 3077.96 1519.83   1
   5   6   1  578.09 1566.49   1
  -5   6  -1 2991.63 1679.79   1
   5  -6   2 -555.17 1221.47   1
  -5  -6  -2 1687.62 1397.09   1
   5   6   2  942.00 1504.99   1
  -5   6  -2 1560.29 1362.83   1
   6   0 -10 9668.19 2218.50   1
  -6   0  10 9433.50 2248.72   1
   6   0  -9  19787. 3571.62   1
  -6   0   9  25571. 4227.13   1
   6   0  -8 3110.33 1575.13   1
  -6   0   8 1265.98 1372.00   1
   6   0  -6 5486.91 1609.66   1
  -6   0   6 2332.61 1406.80   1
   6   0  -5  27408. 4165.09   1
  -6   0   5  26455. 4175.88   1
   6  -1 -10 3827.89 1541.14   1
  -6  -1  10 5222.55 1746.69   1
   6   1 -10 4022.12 1411.38   1
  -6   1  10 3520.36 1795.79   1
   6  -1  -9  10289. 2512.00   1
  -6  -1   9  10904. 2341.51   1
   6   1  -9 6992.17 1816.83   1
  -6   1   9  13920. 3113.03   1
   6  -1  -8 5584.02 2110.60   1
  -6  -1   8  12520. 2482.06   1
   6   1  -8  13626. 2546.53   1
  -6   1   8  17623. 3398.97   1
   6  -1  -7 5708.11 1886.43   1
  -6  -1   7  10092. 2240.08   1
   6   1  -7 6352.84 1654.98   1
  -6   1   7 7140.54 1977.61   1
   6  -1  -6  14419. 2802.80   1
  -6  -1   6  18009. 2991.63   1
   6   1  -6  17583. 2889.13   1
  -6   1   6  15792. 2999.73   1
   6  -1  -5  13334. 2695.44   1
  -6   1   5  16706. 3202.05   1
   6  -1  -4 6110.06 1921.77   1
  -6   1   4 4472.61 1851.63   1
   6  -2 -10 2362.29 1289.72   1
  -6  -2  10 2645.53 1277.04   1
   6   2 -10 2069.06 1142.70   1
  -6   2  10  788.24 1400.32   1
   6  -2  -9 1593.74 1561.91   1
  -6  -2   9  970.33 1258.16   1
   6   2  -9  692.20 1098.46   1
  -6   2   9 1930.13 1732.40   1
   6  -2  -8  11173. 2875.64   1
  -6  -2   8 8850.81 1984.89   1
   6   2  -8 7102.77 1662.80   1
  -6   2   8 7164.82 2551.66   1
   6  -2  -7  20755. 3733.47   1
  -6  -2   7  23135. 3520.36   1
   6   2  -7  21589. 3282.97   1
  -6   2   7  17672. 3452.92   1
   6  -2  -6 6431.07 1974.10   1
  -6   2   6 5700.02 1950.09   1
   6  -2  -5 4399.78 1777.72   1
  -6   2   5 4720.79 1806.04   1
   6  -2  -4 4998.65 1861.34   1
  -6   2   4 8049.63 2227.94   1
   6  -2  -3 5219.85 1913.14   1
  -6   2   3 7197.19 2135.69   1
   6  -3  -9  10148. 2485.84   1
  -6  -3   9 7480.43 1492.31   1
   6   3  -9  11691. 1940.38   1
  -6   3   9 6784.46 2234.42   1
   6  -3  -8 6228.75 2175.07   1
   6   3  -8 4154.30 1227.95   1
  -6   3   8 6673.85 2462.10   1
   6  -3  -7 8505.52 2569.19   1
  -6   3   7 8764.49 2773.13   1
   6  -3  -6 1360.40 1964.66   1
  -6   3   6 7644.99 2306.98   1
   6  -3  -5 8904.77 2338.28   1
  -6   3   5 9446.98 2519.56   1
   6  -3  -4 7105.47 2100.89   1
  -6   3   4 3234.42 1899.65   1
   6  -3  -3 6385.21 1968.17   1
  -6   3   3 9881.30 2485.84   1
   6  -3  -2 7680.06 2074.18   1
  -6   3   2 9150.25 2281.09   1
   6  -4  -8 -201.67 1566.49   1
  -6   4   8 -1096.8 1845.43   1
   6  -4  -7 3126.51 2061.77   1
  -6   4   7  471.81 2102.24   1
   6  -4  -6  10456. 2867.54   1
  -6   4   6 5727.00 2339.36   1
   6  -4  -5 1379.28 2018.34   1
  -6   4   5 3307.25 1981.11   1
   6  -4  -4  44295. 6830.31   1
  -6   4   4  42352. 6509.30   1
   6  -4  -3  15951. 3210.14   1
  -6   4   3  20898. 3768.54   1
   6  -4  -2  13086. 2956.57   1
  -6   4   2  24427. 4154.30   1
   6  -4  -1 5330.45 1895.87   1
  -6   4   1 8230.37 2092.80   1
   6  -5  -7 -2011.6 1405.45   1
  -6   5   7  888.59 1690.58   1
   6  -5  -6 1254.38 1884.81   1
  -6   5   6   13.67 1878.61   1
   6  -5  -5 6312.38 2422.44   1
  -6   5   5 2746.15 1949.82   1
   6  -5  -4 3026.70 2125.71   1
  -6   5   4 5314.27 2163.20   1
   6  -5  -3 6498.51 2403.56   1
  -6   5   3 7418.39 2339.63   1
   6  -5  -2 2786.62 2073.64   1
  -6   5   2 1933.10 1574.32   1
   6  -5  -1 5176.69 2353.38   1
  -6   5   1 3075.26 1819.80   1
   6  -5   0 2070.14 1554.09   1
   6   5   0 1967.63 1487.45   1
  -6   5   0 1638.79 1556.24   1
   6   5   1 1314.00 1397.09   1
  -6  -5  -2 -1160.0 1400.05   1
   6   5   2 1886.43 1466.14   1
  -6  -5  -3 3380.09 1501.75   1
   6   5   3 2683.03 1446.72   1
   6  -6  -3 1801.19 1545.45   1
  -6  -6   3 1560.56 1103.59   1
   6   6  -3 -743.73 1070.68   1
  -6   6   3  -14.97 1578.63   1
   6  -6  -2 2143.78 1740.22   1
  -6  -6   2 1422.71 1089.29   1
   6   6  -2  527.92 1287.29   1
  -6   6   2 3126.51 1602.91   1
   6  -6  -1 -246.10 1336.93   1
  -6  -6   1 1694.63 1233.88   1
   6   6  -1 -3083.4 1287.56   1
  -6   6   1 1251.68 1391.42   1
  -6  -6   0 1636.63 1382.52   1
  -6   6   0  362.02 1628.27   1
   7   0 -10 3744.26 1539.52   1
  -7   0  10 -102.89 1305.10   1
   7   0  -9 1923.12 1495.01   1
  -7   0   9  525.76 1462.37   1
   7   0  -8  826.00 1694.63   1
  -7   0   8 3409.76 1592.12   1
   7   0  -7  13620. 2616.94   1
  -7   0   7  10094. 2370.11   1
   7   0  -6 6584.83 1810.36   1
  -7   0   6 4852.98 1845.70   1
   7  -1 -10 1452.39 1407.34   1
  -7  -1  10 2258.16 1330.45   1
   7   1 -10 1041.00 1264.36   1
  -7   1  10 2076.88 1710.28   1
   7  -1  -9  11001. 2514.70   1
  -7  -1   9 8009.16 1975.99   1
   7   1  -9  10016. 2192.88   1
  -7   1   9 8268.13 2251.41   1
   7  -1  -8  21176. 3755.05   1
  -7  -1   8 9889.39 2330.18   1
   7   1  -8  10359. 2230.10   1
  -7   1   8  19997. 3746.96   1
   7  -1  -7  44699. 6584.83   1
  -7  -1   7  45643. 6514.70   1
   7   1  -7  49447. 6951.71   1
  -7   1   7  42865. 6449.95   1
   7  -1  -6  24796. 4078.77   1
  -7   1   6  25144. 4259.50   1
   7  -1  -5 2406.53 1535.20   1
  -7   1   5 -1839.0 1760.72   1
   7  -2  -9 1579.44 1639.87   1
  -7  -2   9 4154.30 1529.54   1
   7   2  -9 3169.68 1175.61   1
  -7   2   9 4507.68 1885.08   1
   7  -2  -8 3668.73 2082.54   1
  -7  -2   8 6390.61 1771.24   1
   7   2  -8 6304.28 1642.57   1
  -7   2   8 1060.43 1789.86   1
   7  -2  -7  13453. 2959.26   1
  -7   2   7  13488. 3075.26   1
   7  -2  -6  32641. 5163.20   1
  -7   2   6  28675. 4788.23   1
   7  -2  -5  11573. 2636.63   1
  -7   2   5 8961.42 2435.39   1
   7  -2  -4  989.75 1565.15   1
  -7   2   4    0.37 1749.93   1
   7  -3  -9  245.29 1617.75   1
  -7  -3   9  575.94 977.609   1
   7   3  -9 -413.00 925.006   1
  -7   3   9  876.18 1786.35   1
   7  -3  -8  390.07 1791.20   1
  -7   3   8 3005.12 1787.70   1
   7  -3  -7 3042.89 1986.51   1
  -7   3   7 3652.55 2021.58   1
   7  -3  -6  11155. 2816.29   1
  -7   3   6  16302. 3525.76   1
   7  -3  -5 1597.25 1900.73   1
  -7   3   5 1557.59 1915.56   1
   7  -3  -4 -1850.0 1937.14   1
  -7   3   4  218.83 2065.01   1
   7  -3  -3 5932.01 2172.10   1
  -7   3   3 4931.21 2090.37   1
  -7   4   8 1114.38 1858.10   1
   7  -4  -7 2017.80 1707.04   1
  -7   4   7  -46.48 1775.83   1
   7  -4  -6 -345.29 1806.04   1
  -7   4   6 1056.11 1759.37   1
   7  -4  -5 7647.69 2593.20   1
  -7   4   5 9150.25 2658.21   1
   7  -4  -4  25608. 4531.96   1
  -7   4   4  16067. 3312.65   1
   7  -4  -3 4121.93 2299.70   1
  -7   4   3 7237.65 2325.60   1
   7  -4  -2 1283.52 2018.07   1
  -7   4   2 6579.44 2202.59   1
  -7   5   6 1444.29 1774.21   1
   7  -5  -5 3479.90 1811.44   1
  -7   5   5 -2342.1 1565.15   1
   7  -5  -4 1513.08 1707.31   1
  -7   5   4 1601.02 1611.81   1
   7  -5  -3 1786.35 1629.62   1
  -7   5   3  973.02 1622.87   1
   7  -5  -2 4051.79 1968.44   1
  -7   5   2 4788.23 1791.20   1
   7  -5  -1  682.22 1568.11   1
  -7   5   1 -631.51 1545.18   1
   7  -5   0 -403.02 1409.76   1
   8   0  -9 2639.33 1466.95   1
  -8   0   9 4208.25 1688.43   1
   8   0  -8 5772.86 1786.08   1
  -8   0   8 6800.64 2195.03   1
   8   0  -7 1146.48 1749.93   1
  -8   0   7 2531.15 2086.59   1
   8  -1  -9  995.41 1618.83   1
  -8  -1   9 -740.76 1557.32   1
   8   1  -9 -819.26 1220.39   1
  -8   1   9  478.55 1392.50   1
   8  -1  -8 1683.03 1488.26   1
  -8  -1   8  883.19 1678.17   1
   8   1  -8 1334.23 1341.24   1
  -8   1   8 1771.78 1774.21   1
   8  -1  -7  -91.83 1884.54   1
  -8   1   7 3582.41 2087.13   1
   8  -1  -6 6498.51 2096.57   1
  -8   1   6 3973.56 1929.32   1
   8  -2  -9 -905.85 1292.15   1
  -8  -2   9  214.78 1188.56   1
   8   2  -9 -1346.9 943.619   1
  -8   2   9  203.29 1569.73   1
   8  -2  -8  11057. 2546.53   1
  -8   2   8 8373.34 2357.43   1
   8  -2  -7 2719.18 1864.58   1
  -8   2   7  140.30 1830.86   1
   8  -2  -6  19253. 3614.78   1
  -8   2   6  15724. 3409.76   1
   8  -2  -5 8216.88 2286.48   1
  -8   2   5  10448. 2621.52   1
   8  -2  -4 1110.87 1324.79   1
   8  -3  -8 -784.46 1551.93   1
  -8   3   8 1755.87 1552.47   1
   8  -3  -7 4038.30 1848.66   1
  -8   3   7 3002.42 1757.48   1
   8  -3  -6 8572.96 2322.90   1
  -8   3   6 3212.84 2071.75   1
   8  -3  -5  933.91 1601.29   1
  -8   3   5 2232.80 2024.28   1
   8  -3  -4 9986.50 2555.43   1
  -8   3   4  14241. 3075.26   1
   8  -3  -3  11948. 2716.48   1
   8  -4  -6 2192.07 1624.76   1
  -8   4   6 -2278.7 1753.44   1
   8  -4  -5 -244.46 1464.26   1
  -8   4   5  536.28 1721.34   1
   8  -4  -4 3018.61 2131.37   1
  -8   4   4 -205.53 1659.29   1
   8  -4  -3  114.76 1781.22   1
  -8   4   3 2113.03 1895.60   1
   8  -4  -2 3388.18 1689.50   1
  -8   5   3 2252.76 1653.36   1
   9   0  -8  219.07 1514.97   1
  -9   0   8 -368.49 1781.22   1
   9   0  -7  497.71 1527.38   1
   9  -1  -8 3827.89 1704.61   1
   9   1  -8 4259.50 1551.12   1
  -9   1   8 1950.90 1899.65   1
   9  -1  -7 -664.69 1408.15   1
  -9   1   7 -345.29 1797.14   1
   9  -1  -6 4378.20 1682.76   1
   9  -2  -8  886.43 1390.88   1
  -9   2   8 1969.78 1669.27   1
   9  -2  -7 1073.64 1745.08   1
  -9   2   7  422.98 1927.70   1
   9  -2  -6 5171.29 1861.88   1
  -9   2   6  10823. 2686.54   1
   9  -2  -5 7110.86 2099.81   1
   9  -3  -7  800.65 1517.94   1
   9  -3  -6 2101.97 1601.83   1
  -9   3   6 3277.58 1706.77   1
   9  -3  -5 2662.53 1739.41   1
  -9   3   5 2306.98 1752.09   1
   9  -3  -4 4499.59 1744.27   1
  -9   3   4 2964.66 1647.69   1
   9  -4  -4 2503.10 1715.40   1
  -9   4   4 3323.44 1790.93   1
   9  -4  -3  616.94 1293.23   1
  -9   4   3 2190.99 1540.33   1
  10  -1  -7  637.71 1318.59   1
 -10   1   7   19.63 1465.33   1
  10  -2  -6 1114.92 1474.78   1
 -10   2   6 -2835.2 1543.03   1
   0   0   0      0.    0.00   0
;
_shelx_hkl_checksum   54998

