
TITL XKN in P2(1)
    shelxl.res
    created by SHELXL-2018/3 at 10:52:42 on 14-Feb-2025
CELL 0.02508 10.7320 7.2830 11.1070 90.0000 108.0600 90.0000
ZERR 1 0 0 0 0 0 0
LATT -1
SYMM -X,0.5+Y,-Z
SFAC  C 0.136 0.373 0.548 3.281 1.227 13.046 0.597 41.02 0 0 0 0 0.75 12.011
SFAC  H 0.037 0.561 0.127 3.791 0.236 13.556 0.129 37.723 0 0 0 0 0.32 1.008
SFAC  N 0.137 0.329 0.534 2.673 1.086 10.316 0.455 32.763 0 0 0 0 0.71 14.007
SFAC  O 0.143 0.305 0.51 2.268 0.937 8.262 0.392 25.665 0 0 0 0 0.63 15.999
UNIT 38 44 4 2

L.S. 100
PLAN  50
CONF
list 3
MORE -1
fmap 2 53
acta

WGHT    0.200000
FVAR      39.71757
N001  3    0.890344    0.343064    0.336180    11.00000    0.03924
C002  1    0.579425    0.816874    0.588146    11.00000    0.05794
C003  1    0.692495    0.539946    0.267152    11.00000    0.07098
C004  1    0.750943    0.615535    0.556324    11.00000    0.03738
C005  1    0.673882    0.788144    0.528537    11.00000    0.06953
C10   1    0.716643    0.487296    0.638591    11.00000    0.03974
O9    4    0.906723    0.739838    0.457889    11.00000    0.05597
C7    1    0.834481    0.499748    0.130196    11.00000    0.06056
N13   3    0.551175    0.704666    0.659840    11.00000    0.07214
C5    1    0.859220    0.581306    0.494759    11.00000    0.04518
C2    1    0.788053    0.445242    0.377993    11.00000    0.03530
C3    1    0.829012    0.175933    0.263453    11.00000    0.07074
C8    1    0.710810    0.446596    0.143603    11.00000    0.06289
C6    1    0.695840    0.236180    0.162397    11.00000    0.07235
C4    1    0.937662    0.451955    0.256846    11.00000    0.05801
C14   1    0.570734    0.407745    0.772020    11.00000    0.06333
C11   1    0.618274    0.539161    0.687285    11.00000    0.05539
C16   1    0.643340    0.246851    0.799165    11.00000    0.06474
C15   1    0.744585    0.196808    0.752066    11.00000    0.06950
C12   1    0.782611    0.320667    0.670862    11.00000    0.05319
C00L  1    0.866696    0.753515   -0.008778    11.00000    0.15716
C1    1    0.840580    0.689737    0.086972    11.00000    0.08711
HKLF 4




REM  XKN in P2(1)
REM wR2 = 0.4429, GooF = S = 1.423, Restrained GooF = 1.423 for all data
REM R1 = 0.1765 for 868 Fo > 4sig(Fo) and 0.2113 for all 1285 data
REM 89 parameters refined using 1 restraints

END  
     
WGHT      0.2000      0.0000 

REM Highest difference peak  0.176,  deepest hole -0.181,  1-sigma level  0.052
Q1    1   0.7433  0.0821  0.9809  11.00000  0.05    0.18
Q2    1   0.8034  0.0556  0.7793  11.00000  0.05    0.16
Q3    1   0.7221  0.6848  0.2680  11.00000  0.05    0.15
Q4    1   0.7362  0.0542  0.9046  11.00000  0.05    0.14
Q5    1   0.6644  0.1058  0.8870  11.00000  0.05    0.14
Q6    1   0.7426  0.1404  0.4838  11.00000  0.05    0.12
Q7    1   0.7583 -0.0152  0.0763  11.00000  0.05    0.12
Q8    1   0.7240  0.9996  0.6066  11.00000  0.05    0.12
Q9    1   0.8735  0.9807 -0.0701  11.00000  0.05    0.12
Q10   1   0.8234  0.9488 -0.0204  11.00000  0.05    0.12
Q11   1   0.8591  0.8227  0.1847  11.00000  0.05    0.11
Q12   1   0.6652  0.9465 -0.0028  11.00000  0.05    0.11
Q13   1   0.8173  0.0547  0.5625  11.00000  0.05    0.11
Q14   1   0.8725  1.0227  0.0811  11.00000  0.05    0.11
Q15   1   0.6173  0.8920  0.6033  11.00000  0.05    0.11
Q16   1   0.4037  0.3685  0.8569  11.00000  0.05    0.11
Q17   1   0.5897 -0.0746  0.8767  11.00000  0.05    0.11
Q18   1   0.8604  0.0881  0.1955  11.00000  0.05    0.10
Q19   1   0.9015  0.8551 -0.1347  11.00000  0.05    0.10
Q20   1   0.5386  0.9522  0.7836  11.00000  0.05    0.10
Q21   1   0.7007  0.7938 -0.0352  11.00000  0.05    0.10
Q22   1   1.0131  0.3887  0.2264  11.00000  0.05    0.10
Q23   1   0.7484  0.0233  0.1918  11.00000  0.05    0.09
Q24   1   0.4598  0.4078  0.7992  11.00000  0.05    0.09
Q25   1   0.5089  0.7802  0.8351  11.00000  0.05    0.09
Q26   1   0.7450  0.0666  0.3244  11.00000  0.05    0.09
Q27   1   0.8251  0.7841  0.1127  11.00000  0.05    0.09
Q28   1   0.7016  0.8603  0.6826  11.00000  0.05    0.09
Q29   1   0.5353  0.2644  0.0032  11.00000  0.05    0.08
Q30   1   0.6166  0.0349  0.2446  11.00000  0.05    0.08
Q31   1   0.6281  0.9774  0.4976  11.00000  0.05    0.08
Q32   1   1.0648  0.7248 -0.0180  11.00000  0.05    0.08
Q33   1   0.7711  0.9667  0.4383  11.00000  0.05    0.08
Q34   1   0.4854  0.3385 -0.0252  11.00000  0.05    0.08
Q35   1   0.7986  0.1827  0.2420  11.00000  0.05    0.08
Q36   1   0.6521  0.2025  0.3259  11.00000  0.05    0.08
Q37   1   0.9994  0.6922  0.3429  11.00000  0.05    0.07
Q38   1   0.9881  0.8011  0.5396  11.00000  0.05    0.07
Q39   1   0.5371  0.7959  0.5784  11.00000  0.05    0.07
Q40   1   0.6853  0.9225  0.4640  11.00000  0.05    0.07
Q41   1   0.8942  0.8110  0.4621  11.00000  0.05    0.07
Q42   1   0.6559  0.7886  0.7494  11.00000  0.05    0.07
Q43   1   0.9130  0.7790  0.0277  11.00000  0.05    0.06
Q44   1   0.9240  0.4924  0.5560  11.00000  0.05    0.06
Q45   1   0.6026  0.2787  0.1240  11.00000  0.05    0.06
Q46   1   0.5410  0.1983  0.1038  11.00000  0.05    0.06
Q47   1   0.9218  0.2832  0.6452  11.00000  0.05    0.05
Q48   1   0.5655  0.4203  0.0523  11.00000  0.05    0.05
Q49   1   1.0404  0.4204  0.3186  11.00000  0.05    0.05
Q50   1   0.9545  0.6142 -0.0541  11.00000  0.05    0.05
