TITL XKN in P2(1)
    shelxl.res
    created by SHELXL-2018/3 at 21:46:43 on 13-Feb-2025
CELL 0.02508 10.773 7.311 11.151 90 108.069 90
ZERR 1 0 0 0 0 0 0
LATT -1
SYMM -X,0.5+Y,-Z
SFAC  C 0.136 0.373 0.548 3.281 1.227 13.046 0.597 41.02 0 0 0 0 0.75 12.011
SFAC  N 0.137 0.329 0.534 2.673 1.086 10.316 0.455 32.763 0 0 0 0 0.71 14.007
SFAC  O 0.143 0.305 0.51 2.268 0.937 8.262 0.392 25.665 0 0 0 0 0.63 15.999
UNIT 38 4 2

L.S. 100
PLAN  26
CONF
list 3
MORE -1
fmap 2 53
acta
REM <olex2.extras>
REM <HklSrc "%.\\shelxl.hkl">
REM </olex2.extras>

WGHT    0.200000
FVAR      40.15000
N001  2    0.891272    0.342928    0.336205    11.00000    0.03984
C002  1    0.578810    0.816878    0.588069    11.00000    0.06004
C003  1    0.694561    0.540038    0.267400    11.00000    0.07079
C004  1    0.751783    0.615322    0.556607    11.00000    0.03804
C005  1    0.674186    0.787954    0.528901    11.00000    0.07199
C10   1    0.717126    0.487507    0.639087    11.00000    0.04033
O9    3    0.905467    0.739331    0.457293    11.00000    0.05673
C7    1    0.833838    0.498494    0.130339    11.00000    0.06140
N13   2    0.552021    0.705296    0.659888    11.00000    0.07576
C5    1    0.859530    0.581904    0.495047    11.00000    0.04423
C2    1    0.786634    0.444460    0.377675    11.00000    0.03718
C3    1    0.828388    0.174799    0.263027    11.00000    0.07119
C8    1    0.709931    0.446308    0.143212    11.00000    0.06548
C6    1    0.696339    0.237213    0.162132    11.00000    0.07137
C4    1    0.938578    0.451861    0.257299    11.00000    0.05771
C14   1    0.570801    0.406891    0.771787    11.00000    0.06282
C11   1    0.618297    0.539319    0.687651    11.00000    0.05585
C16   1    0.643436    0.247370    0.799429    11.00000    0.06566
C15   1    0.744519    0.195869    0.752197    11.00000    0.06773
C12   1    0.783565    0.321155    0.671053    11.00000    0.05080
C00L  1    0.863530    0.758204   -0.008573    11.00000    0.15798
C1    1    0.837909    0.691857    0.086399    11.00000    0.08941
HKLF 4




REM  XKN in P2(1)
REM wR2 = 0.4408, GooF = S = 1.410, Restrained GooF = 1.409 for all data
REM R1 = 0.1755 for 861 Fo > 4sig(Fo) and 0.2098 for all 1278 data
REM 89 parameters refined using 1 restraints

END  
     
WGHT      0.2000      0.0000 

REM Highest difference peak  0.185,  deepest hole -0.180,  1-sigma level  0.052
Q1    1   0.7466  0.0851  0.9825  11.00000  0.05    0.18
Q2    1   0.8022  0.0536  0.7781  11.00000  0.05    0.15
Q3    1   0.7238  0.6834  0.2677  11.00000  0.05    0.15
Q4    1   0.6815  0.1038  0.9011  11.00000  0.05    0.14
Q5    1   0.8743  0.9807 -0.0724  11.00000  0.05    0.12
Q6    1   0.7472  0.1441  0.4790  11.00000  0.05    0.12
Q7    1   0.7271  0.9988  0.6046  11.00000  0.05    0.12
Q8    1   0.6634  0.9472 -0.0008  11.00000  0.05    0.12
Q9    1   0.8639  0.8281  0.1844  11.00000  0.05    0.12
Q10   1   0.8930  0.9975  0.1014  11.00000  0.05    0.11
Q11   1   0.5900 -0.0779  0.8741  11.00000  0.05    0.11
Q12   1   0.4044  0.3682  0.8555  11.00000  0.05    0.11
Q13   1   0.9000  0.8537 -0.1362  11.00000  0.05    0.11
Q14   1   0.5613  0.9440  0.8005  11.00000  0.05    0.11
Q15   1   0.8315  1.0378  0.5619  11.00000  0.05    0.11
Q16   1   0.8368  0.0814  0.1845  11.00000  0.05    0.10
Q17   1   0.7445  0.0176  0.1927  11.00000  0.05    0.10
Q18   1   1.0213  0.3976  0.2313  11.00000  0.05    0.10
Q19   1   0.5056  0.2489  0.1743  11.00000  0.05    0.10
Q20   1   0.6134  0.8895  0.6033  11.00000  0.05    0.10
Q21   1   0.7096  0.7890 -0.0399  11.00000  0.05    0.09
Q22   1   0.4635  0.4029  0.7991  11.00000  0.05    0.09
Q23   1   0.5306  0.2628  0.0048  11.00000  0.05    0.09
Q24   1   0.4821  0.3369  0.1365  11.00000  0.05    0.09
Q25   1   0.6239  0.9774  0.5010  11.00000  0.05    0.09
Q26   1   0.7543  0.0638  0.3262  11.00000  0.05    0.08
